%chk=C:\CH3_2.chk
# rob3lyp/6-31G* nosymm

test

0 2
 C                  0.00000000    0.00000000   -0.76537000
 H                  0.51058600   -0.88422900   -1.16421700
 H                 -1.02105800   -0.00006600   -1.16421700
 H                  0.51047100    0.88429500   -1.16421700

