%chk=C:\ethane.chk
# b3lyp/6-31G* opt

test

0 1
 C                 -1.19198225    1.81296559    0.76619792
 H                 -2.22736750    2.15997218    0.82752594
 H                 -0.55050318    2.69761158    0.72034070
 H                 -0.96448510    1.28940486    1.69911069
 C                 -0.97887424    0.90616351   -0.44832840
 H                  0.05660132    0.55946486   -0.50987049
 H                 -1.62007695    0.02132710   -0.40228050
 H                 -1.20673807    1.42960674   -1.38121777

