%chk=C:\CH2_1.chk
# b3lyp/6-31g(d) nosymm

Title Card Required

0 3
 C                  0.00000000    0.00000000    0.66542700
 H                  0.00000000    0.92366000    1.23954600
 H                  0.00000000   -0.92366000    1.23954600

