%chk=alpha.chk
# b3lyp/6-311g(d,p) scrf em=gd3 opt=modredundant int=fine

Title Card Required

-1 1
 N                  1.09764800   -0.74256900   -0.28621000
 H                  1.53125142    0.08746273   -0.66565495
 C                 -0.02235300   -0.50166200    0.60272300
 H                  0.04753600   -1.19899700    1.44291500
 C                 -0.02689700    0.94556300    1.15935200
 C                 -1.30712600   -0.80458600   -0.18610300
 H                  0.89440988    1.44688938    0.85243215
 H                 -0.87589594    1.45984299    0.70739901
 C                 -0.14485272    0.95288642    2.70614151
 O                 -2.10540966   -1.66435169    0.18182708
 O                  0.77974800    1.53559661    3.32836098
 O                 -1.13051496    0.34577383    3.19510963
 C                  1.71157638   -1.94148287   -0.39545551
 C                  3.00665077   -1.92042574   -1.18678737
 H                  3.33209538   -2.94203400   -1.37412411
 H                  2.89108968   -1.39076186   -2.13560746
 H                  3.77043347   -1.39887637   -0.60282056
 O                  1.26563871   -2.96888011    0.11595464
 N                 -1.48994546   -0.05401712   -1.29290876
 H                 -0.75047941    0.57013044   -1.57622899
 C                 -2.54294236   -0.34185997   -2.25641085
 H                 -3.45537555   -0.60741514   -1.72366600
 H                 -2.72550519    0.54342216   -2.86467523
 H                 -2.26630075   -1.17674780   -2.90874485

1 3 6 19 F
6 3 1 13 F

