%chk=C:\Users\Sobereva\Desktop\(CO)5CrCH2.chk
# TPSSh/genecp opt freq

Title Card Required

0 1
 Cr                 0.00000000    0.00000000    0.15135800
 C                 -1.91841100   -0.01500000    0.14141500
 O                 -3.06356200   -0.01500000    0.16814200
 C                  0.01000000    1.89634100    0.24463500
 O                  0.01000000    3.04059000    0.33695100
 C                  1.91841100    0.01500000    0.14141500
 O                  3.06356200    0.01500000    0.16814200
 C                  0.00000000    0.00000000   -1.78404300
 O                  0.00000000    0.00000000   -2.93040900
 C                 -0.01000000   -1.89634100    0.24463500
 O                 -0.01000000   -3.04059000    0.33695100
 C                  0.00000000    0.00000000    2.06468400
 H                  0.35500000    0.89092200    2.70636800
 H                 -0.35500000   -0.89092200    2.70636800

Cr
SDD
****
C O H
6-311G*
****

Cr
SDD

