%chk=C:\Users\Sobereva\Desktop\CH2.chk
# TPSSh/6-311G* nosymm

Title Card Required

0 1
 C                  0.00000000    0.00000000    2.05649400
 H                  0.61853200   -0.64507300    2.69431900
 H                 -0.61853200    0.64507300    2.69431900

