%chk=C2H7O4P.chk
# opt B3LYP/6-311G** em=gd3bj

Title Card Required

0 1
 P                  0.03046097   -0.51516984    0.10407750
 O                  0.62566498   -1.41761444    1.07656105
 O                 -0.68984896   -1.12887573   -1.18770131
 H                  0.02736514   -1.54454129   -1.79155123
 O                 -1.14215300    0.31887653    0.78572488
 O                  0.98215624    0.52761997   -0.67066076
 C                 -1.95422207    1.23843841    0.02385260
 H                 -2.62416465    0.72384421   -0.67860379
 H                 -2.54041739    1.68158918    0.84760151
 H                 -1.38824697    2.02251351   -0.49508021
 C                  2.08160490    1.16221080    0.00459573
 H                  2.54015337    1.69492212   -0.84633334
 H                  1.74944690    1.88464820    0.76257066
 H                  2.80809793    0.46062566    0.43815303

