# b3lyp/6-31g(d) pop=full nosymm

B3LYP/6-31G* opted

0 1
 B                  0.00000000    0.00000000   -0.93825400
 H                 -1.01546100    0.58627700   -1.24170800
 H                  0.00000000   -1.17255300   -1.24170800
 H                  1.01546100    0.58627700   -1.24170800

