#P b3lyp/6-31g(d) nosymm guess=cards

Please check this file to ensure validity

  0  1
N     0.00000000    0.00000000    0.73100200
H     0.00000000    0.95142200    1.09979200
H     0.82395500   -0.47571100    1.09979200
H    -0.82395500   -0.47571100    1.09979200
B     0.00000000    0.00000000   -0.93825400
H    -1.01546100    0.58627700   -1.24170800
H     0.00000000   -1.17255300   -1.24170800
H     1.01546100    0.58627700   -1.24170800

(5E16.9)
-1
! Orbital:     1 Occ:  2.000000 from fragment   1
 0.992710000E+00 0.346300000E-01 0.000000000E+00 0.000000000E+00 0.127000000E-02
 0.383000000E-02 0.000000000E+00 0.000000000E+00-0.360000000E-03-0.818000000E-02
-0.818000000E-02-0.822000000E-02 0.000000000E+00 0.000000000E+00 0.000000000E+00
 0.240000000E-03-0.370000000E-03 0.240000000E-03-0.370000000E-03 0.240000000E-03
-0.370000000E-03 0.000000000E+00 0.000000000E+00 0.000000000E+00 0.000000000E+00
 0.000000000E+00 0.000000000E+00 0.000000000E+00 0.000000000E+00 0.000000000E+00
 0.000000000E+00 0.000000000E+00 0.000000000E+00 0.000000000E+00 0.000000000E+00
 0.000000000E+00 0.000000000E+00 0.000000000E+00 0.000000000E+00 0.000000000E+00
 0.000000000E+00 0.000000000E+00
! Orbital:     2 Occ:  2.000000 from fragment   1
-0.199500000E+00 0.416790000E+00 0.000000000E+00 0.000000000E+00 0.109260000E+00
 0.428470000E+00 0.000000000E+00 0.000000000E+00 0.551100000E-01 0.785000000E-02
 0.785000000E-02-0.752000000E-02 0.000000000E+00 0.000000000E+00 0.000000000E+00
 0.139320000E+00 0.127700000E-01 0.139320000E+00 0.127700000E-01 0.139320000E+00
 0.127700000E-01 0.000000000E+00 0.000000000E+00 0.000000000E+00 0.000000000E+00
 0.000000000E+00 0.000000000E+00 0.000000000E+00 0.000000000E+00 0.000000000E+00
 0.000000000E+00 0.000000000E+00 0.000000000E+00 0.000000000E+00 0.000000000E+00
 0.000000000E+00 0.000000000E+00 0.000000000E+00 0.000000000E+00 0.000000000E+00
 0.000000000E+00 0.000000000E+00
! Orbital:     3 Occ:  2.000000 from fragment   1
 0.000000000E+00 0.000000000E+00 0.000000000E+00 0.481010000E+00 0.000000000E+00
 0.000000000E+00 0.000000000E+00 0.247200000E+00 0.000000000E+00-0.140900000E-01
 0.140900000E-01 0.000000000E+00 0.000000000E+00 0.000000000E+00 0.333000000E-01
 0.280320000E+00 0.192030000E+00-0.140160000E+00-0.960200000E-01-0.140160000E+00
-0.960200000E-01 0.000000000E+00 0.000000000E+00 0.000000000E+00 0.000000000E+00
 0.000000000E+00 0.000000000E+00 0.000000000E+00 0.000000000E+00 0.000000000E+00
 0.000000000E+00 0.000000000E+00 0.000000000E+00 0.000000000E+00 0.000000000E+00
 0.000000000E+00 0.000000000E+00 0.000000000E+00 0.000000000E+00 0.000000000E+00
 0.000000000E+00 0.000000000E+00
! Orbital:     4 Occ:  2.000000 from fragment   1
 0.000000000E+00 0.000000000E+00 0.481010000E+00 0.000000000E+00 0.000000000E+00
 0.000000000E+00 0.247200000E+00 0.000000000E+00 0.000000000E+00 0.000000000E+00
 0.000000000E+00 0.000000000E+00-0.162700000E-01 0.333000000E-01 0.000000000E+00
 0.000000000E+00 0.000000000E+00 0.242770000E+00 0.166300000E+00-0.242770000E+00
-0.166300000E+00 0.000000000E+00 0.000000000E+00 0.000000000E+00 0.000000000E+00
 0.000000000E+00 0.000000000E+00 0.000000000E+00 0.000000000E+00 0.000000000E+00
 0.000000000E+00 0.000000000E+00 0.000000000E+00 0.000000000E+00 0.000000000E+00
 0.000000000E+00 0.000000000E+00 0.000000000E+00 0.000000000E+00 0.000000000E+00
 0.000000000E+00 0.000000000E+00
! Orbital:     5 Occ:  2.000000 from fragment   1
 0.714500000E-01-0.154970000E+00 0.000000000E+00 0.000000000E+00 0.558700000E+00
-0.320340000E+00 0.000000000E+00 0.000000000E+00 0.475470000E+00-0.810000000E-02
-0.810000000E-02 0.397400000E-01 0.000000000E+00 0.000000000E+00 0.000000000E+00
 0.619600000E-01 0.628300000E-01 0.619600000E-01 0.628300000E-01 0.619600000E-01
 0.628300000E-01 0.000000000E+00 0.000000000E+00 0.000000000E+00 0.000000000E+00
 0.000000000E+00 0.000000000E+00 0.000000000E+00 0.000000000E+00 0.000000000E+00
 0.000000000E+00 0.000000000E+00 0.000000000E+00 0.000000000E+00 0.000000000E+00
 0.000000000E+00 0.000000000E+00 0.000000000E+00 0.000000000E+00 0.000000000E+00
 0.000000000E+00 0.000000000E+00
! Orbital:     6 Occ:  2.000000 from fragment   2
 0.000000000E+00 0.000000000E+00 0.000000000E+00 0.000000000E+00 0.000000000E+00
 0.000000000E+00 0.000000000E+00 0.000000000E+00 0.000000000E+00 0.000000000E+00
 0.000000000E+00 0.000000000E+00 0.000000000E+00 0.000000000E+00 0.000000000E+00
 0.000000000E+00 0.000000000E+00 0.000000000E+00 0.000000000E+00 0.000000000E+00
 0.000000000E+00 0.992760000E+00 0.544600000E-01 0.000000000E+00 0.000000000E+00
 0.900000000E-03-0.177800000E-01 0.000000000E+00 0.000000000E+00 0.770000000E-03
-0.940000000E-02-0.940000000E-02-0.987000000E-02 0.000000000E+00 0.000000000E+00
 0.000000000E+00-0.720000000E-03 0.328000000E-02-0.720000000E-03 0.328000000E-02
-0.720000000E-03 0.328000000E-02
! Orbital:     7 Occ:  2.000000 from fragment   2
 0.000000000E+00 0.000000000E+00 0.000000000E+00 0.000000000E+00 0.000000000E+00
 0.000000000E+00 0.000000000E+00 0.000000000E+00 0.000000000E+00 0.000000000E+00
 0.000000000E+00 0.000000000E+00 0.000000000E+00 0.000000000E+00 0.000000000E+00
 0.000000000E+00 0.000000000E+00 0.000000000E+00 0.000000000E+00 0.000000000E+00
 0.000000000E+00-0.196060000E+00 0.324150000E+00 0.000000000E+00 0.000000000E+00
-0.511000000E-01 0.292880000E+00 0.000000000E+00 0.000000000E+00 0.115000000E-02
 0.184400000E-01 0.184400000E-01-0.940000000E-02 0.000000000E+00 0.000000000E+00
 0.000000000E+00 0.160010000E+00 0.106200000E+00 0.160010000E+00 0.106200000E+00
 0.160010000E+00 0.106200000E+00
! Orbital:     8 Occ:  2.000000 from fragment   2
 0.000000000E+00 0.000000000E+00 0.000000000E+00 0.000000000E+00 0.000000000E+00
 0.000000000E+00 0.000000000E+00 0.000000000E+00 0.000000000E+00 0.000000000E+00
 0.000000000E+00 0.000000000E+00 0.000000000E+00 0.000000000E+00 0.000000000E+00
 0.000000000E+00 0.000000000E+00 0.000000000E+00 0.000000000E+00 0.000000000E+00
 0.000000000E+00 0.000000000E+00 0.000000000E+00 0.000000000E+00 0.413260000E+00
 0.000000000E+00 0.000000000E+00 0.000000000E+00 0.147990000E+00 0.000000000E+00
 0.245700000E-01-0.245700000E-01 0.000000000E+00 0.000000000E+00 0.000000000E+00
-0.114900000E-01 0.138600000E+00 0.142760000E+00-0.277200000E+00-0.285520000E+00
 0.138600000E+00 0.142760000E+00
! Orbital:     9 Occ:  2.000000 from fragment   2
 0.000000000E+00 0.000000000E+00 0.000000000E+00 0.000000000E+00 0.000000000E+00
 0.000000000E+00 0.000000000E+00 0.000000000E+00 0.000000000E+00 0.000000000E+00
 0.000000000E+00 0.000000000E+00 0.000000000E+00 0.000000000E+00 0.000000000E+00
 0.000000000E+00 0.000000000E+00 0.000000000E+00 0.000000000E+00 0.000000000E+00
 0.000000000E+00 0.000000000E+00 0.000000000E+00 0.413260000E+00 0.000000000E+00
 0.000000000E+00 0.000000000E+00 0.147990000E+00 0.000000000E+00 0.000000000E+00
 0.000000000E+00 0.000000000E+00 0.000000000E+00 0.283700000E-01-0.114900000E-01
 0.000000000E+00-0.240060000E+00-0.247270000E+00 0.000000000E+00 0.000000000E+00
 0.240060000E+00 0.247270000E+00
! Orbital:    10 Occ:  0.000000 from fragment   1
-0.129240000E+00 0.174050000E+00 0.000000000E+00 0.000000000E+00 0.188540000E+00
 0.181439000E+01 0.000000000E+00 0.000000000E+00 0.444950000E+00-0.332300000E-01
-0.332300000E-01-0.304700000E-01 0.000000000E+00 0.000000000E+00 0.000000000E+00
-0.599800000E-01-0.918760000E+00-0.599800000E-01-0.918760000E+00-0.599800000E-01
-0.918760000E+00 0.000000000E+00 0.000000000E+00 0.000000000E+00 0.000000000E+00
 0.000000000E+00 0.000000000E+00 0.000000000E+00 0.000000000E+00 0.000000000E+00
 0.000000000E+00 0.000000000E+00 0.000000000E+00 0.000000000E+00 0.000000000E+00
 0.000000000E+00 0.000000000E+00 0.000000000E+00 0.000000000E+00 0.000000000E+00
 0.000000000E+00 0.000000000E+00
! Orbital:    11 Occ:  0.000000 from fragment   1
 0.000000000E+00 0.000000000E+00 0.000000000E+00-0.417100000E+00 0.000000000E+00
 0.000000000E+00 0.000000000E+00-0.101905000E+01 0.000000000E+00-0.613000000E-02
 0.613000000E-02 0.000000000E+00 0.000000000E+00 0.000000000E+00-0.155100000E-01
 0.102940000E+00 0.163348000E+01-0.514700000E-01-0.816740000E+00-0.514700000E-01
-0.816740000E+00 0.000000000E+00 0.000000000E+00 0.000000000E+00 0.000000000E+00
 0.000000000E+00 0.000000000E+00 0.000000000E+00 0.000000000E+00 0.000000000E+00
 0.000000000E+00 0.000000000E+00 0.000000000E+00 0.000000000E+00 0.000000000E+00
 0.000000000E+00 0.000000000E+00 0.000000000E+00 0.000000000E+00 0.000000000E+00
 0.000000000E+00 0.000000000E+00
! Orbital:    12 Occ:  0.000000 from fragment   1
 0.000000000E+00 0.000000000E+00-0.417100000E+00 0.000000000E+00 0.000000000E+00
 0.000000000E+00-0.101905000E+01 0.000000000E+00 0.000000000E+00 0.000000000E+00
 0.000000000E+00 0.000000000E+00-0.708000000E-02-0.155100000E-01 0.000000000E+00
 0.000000000E+00 0.000000000E+00 0.891500000E-01 0.141464000E+01-0.891500000E-01
-0.141464000E+01 0.000000000E+00 0.000000000E+00 0.000000000E+00 0.000000000E+00
 0.000000000E+00 0.000000000E+00 0.000000000E+00 0.000000000E+00 0.000000000E+00
 0.000000000E+00 0.000000000E+00 0.000000000E+00 0.000000000E+00 0.000000000E+00
 0.000000000E+00 0.000000000E+00 0.000000000E+00 0.000000000E+00 0.000000000E+00
 0.000000000E+00 0.000000000E+00
! Orbital:    13 Occ:  0.000000 from fragment   1
 0.000000000E+00 0.000000000E+00-0.359560000E+00 0.000000000E+00 0.000000000E+00
 0.000000000E+00 0.117504000E+01 0.000000000E+00 0.000000000E+00 0.000000000E+00
 0.000000000E+00 0.000000000E+00 0.148980000E+00-0.843400000E-01 0.000000000E+00
 0.000000000E+00 0.000000000E+00-0.671840000E+00 0.778000000E-01 0.671840000E+00
-0.778000000E-01 0.000000000E+00 0.000000000E+00 0.000000000E+00 0.000000000E+00
 0.000000000E+00 0.000000000E+00 0.000000000E+00 0.000000000E+00 0.000000000E+00
 0.000000000E+00 0.000000000E+00 0.000000000E+00 0.000000000E+00 0.000000000E+00
 0.000000000E+00 0.000000000E+00 0.000000000E+00 0.000000000E+00 0.000000000E+00
 0.000000000E+00 0.000000000E+00
! Orbital:    14 Occ:  0.000000 from fragment   1
 0.000000000E+00 0.000000000E+00 0.000000000E+00-0.359560000E+00 0.000000000E+00
 0.000000000E+00 0.000000000E+00 0.117504000E+01 0.000000000E+00 0.129020000E+00
-0.129030000E+00 0.000000000E+00 0.000000000E+00 0.000000000E+00-0.843400000E-01
-0.775780000E+00 0.898400000E-01 0.387890000E+00-0.449200000E-01 0.387890000E+00
-0.449200000E-01 0.000000000E+00 0.000000000E+00 0.000000000E+00 0.000000000E+00
 0.000000000E+00 0.000000000E+00 0.000000000E+00 0.000000000E+00 0.000000000E+00
 0.000000000E+00 0.000000000E+00 0.000000000E+00 0.000000000E+00 0.000000000E+00
 0.000000000E+00 0.000000000E+00 0.000000000E+00 0.000000000E+00 0.000000000E+00
 0.000000000E+00 0.000000000E+00
! Orbital:    15 Occ:  0.000000 from fragment   1
-0.184300000E-01 0.157730000E+00 0.000000000E+00 0.000000000E+00-0.984360000E+00
 0.609600000E-01 0.000000000E+00 0.000000000E+00 0.111061000E+01 0.411300000E-01
 0.411200000E-01 0.443300000E-01 0.000000000E+00 0.000000000E+00 0.000000000E+00
-0.430200000E-01-0.129290000E+00-0.430100000E-01-0.129290000E+00-0.430100000E-01
-0.129290000E+00 0.000000000E+00 0.000000000E+00 0.000000000E+00 0.000000000E+00
 0.000000000E+00 0.000000000E+00 0.000000000E+00 0.000000000E+00 0.000000000E+00
 0.000000000E+00 0.000000000E+00 0.000000000E+00 0.000000000E+00 0.000000000E+00
 0.000000000E+00 0.000000000E+00 0.000000000E+00 0.000000000E+00 0.000000000E+00
 0.000000000E+00 0.000000000E+00
! Orbital:    16 Occ:  0.000000 from fragment   1
 0.691400000E-01-0.605930000E+00 0.000000000E+00-0.200000000E-04-0.217070000E+00
 0.798860000E+00 0.000000000E+00 0.300000000E-04-0.513100000E-01 0.205700000E-01
 0.205800000E-01-0.237570000E+00 0.000000000E+00 0.000000000E+00 0.000000000E+00
 0.719180000E+00-0.538710000E+00 0.719160000E+00-0.538660000E+00 0.719160000E+00
-0.538660000E+00 0.000000000E+00 0.000000000E+00 0.000000000E+00 0.000000000E+00
 0.000000000E+00 0.000000000E+00 0.000000000E+00 0.000000000E+00 0.000000000E+00
 0.000000000E+00 0.000000000E+00 0.000000000E+00 0.000000000E+00 0.000000000E+00
 0.000000000E+00 0.000000000E+00 0.000000000E+00 0.000000000E+00 0.000000000E+00
 0.000000000E+00 0.000000000E+00
! Orbital:    17 Occ:  0.000000 from fragment   1
 0.000000000E+00-0.100000000E-04 0.000000000E+00 0.990790000E+00 0.000000000E+00
 0.200000000E-04 0.000000000E+00-0.141483000E+01 0.000000000E+00 0.899800000E-01
-0.899800000E-01-0.100000000E-04 0.000000000E+00 0.000000000E+00-0.660100000E-01
-0.552370000E+00 0.146906000E+01 0.276210000E+00-0.734550000E+00 0.276210000E+00
-0.734540000E+00 0.000000000E+00 0.000000000E+00 0.000000000E+00 0.000000000E+00
 0.000000000E+00 0.000000000E+00 0.000000000E+00 0.000000000E+00 0.000000000E+00
 0.000000000E+00 0.000000000E+00 0.000000000E+00 0.000000000E+00 0.000000000E+00
 0.000000000E+00 0.000000000E+00 0.000000000E+00 0.000000000E+00 0.000000000E+00
 0.000000000E+00 0.000000000E+00
! Orbital:    18 Occ:  0.000000 from fragment   1
 0.000000000E+00 0.000000000E+00-0.990790000E+00 0.000000000E+00 0.000000000E+00
 0.000000000E+00 0.141483000E+01 0.000000000E+00 0.000000000E+00 0.000000000E+00
 0.000000000E+00 0.000000000E+00-0.103900000E+00 0.660100000E-01 0.000000000E+00
 0.000000000E+00 0.000000000E+00 0.478380000E+00-0.127225000E+01-0.478380000E+00
 0.127225000E+01 0.000000000E+00 0.000000000E+00 0.000000000E+00 0.000000000E+00
 0.000000000E+00 0.000000000E+00 0.000000000E+00 0.000000000E+00 0.000000000E+00
 0.000000000E+00 0.000000000E+00 0.000000000E+00 0.000000000E+00 0.000000000E+00
 0.000000000E+00 0.000000000E+00 0.000000000E+00 0.000000000E+00 0.000000000E+00
 0.000000000E+00 0.000000000E+00
! Orbital:    19 Occ:  0.000000 from fragment   1
-0.812300000E-01-0.158204000E+01 0.000000000E+00 0.000000000E+00-0.149000000E+00
 0.411552000E+01 0.000000000E+00 0.000000000E+00 0.762000000E+00-0.395400000E+00
-0.395400000E+00-0.757400000E-01 0.000000000E+00 0.000000000E+00 0.000000000E+00
-0.290370000E+00-0.816840000E+00-0.290370000E+00-0.816840000E+00-0.290370000E+00
-0.816840000E+00 0.000000000E+00 0.000000000E+00 0.000000000E+00 0.000000000E+00
 0.000000000E+00 0.000000000E+00 0.000000000E+00 0.000000000E+00 0.000000000E+00
 0.000000000E+00 0.000000000E+00 0.000000000E+00 0.000000000E+00 0.000000000E+00
 0.000000000E+00 0.000000000E+00 0.000000000E+00 0.000000000E+00 0.000000000E+00
 0.000000000E+00 0.000000000E+00
! Orbital:    20 Occ:  0.000000 from fragment   1
 0.000000000E+00 0.000000000E+00 0.000000000E+00-0.184100000E-01 0.000000000E+00
 0.000000000E+00 0.000000000E+00-0.453400000E-01 0.000000000E+00 0.540940000E+00
-0.540940000E+00 0.000000000E+00 0.000000000E+00 0.000000000E+00 0.780070000E+00
 0.383400000E-01 0.455000000E-02-0.191700000E-01-0.228000000E-02-0.191700000E-01
-0.228000000E-02 0.000000000E+00 0.000000000E+00 0.000000000E+00 0.000000000E+00
 0.000000000E+00 0.000000000E+00 0.000000000E+00 0.000000000E+00 0.000000000E+00
 0.000000000E+00 0.000000000E+00 0.000000000E+00 0.000000000E+00 0.000000000E+00
 0.000000000E+00 0.000000000E+00 0.000000000E+00 0.000000000E+00 0.000000000E+00
 0.000000000E+00 0.000000000E+00
! Orbital:    21 Occ:  0.000000 from fragment   1
 0.000000000E+00 0.000000000E+00-0.184100000E-01 0.000000000E+00 0.000000000E+00
 0.000000000E+00-0.453400000E-01 0.000000000E+00 0.000000000E+00 0.000000000E+00
 0.000000000E+00 0.000000000E+00 0.624620000E+00 0.780070000E+00 0.000000000E+00
 0.000000000E+00 0.000000000E+00 0.332000000E-01 0.394000000E-02-0.332000000E-01
-0.394000000E-02 0.000000000E+00 0.000000000E+00 0.000000000E+00 0.000000000E+00
 0.000000000E+00 0.000000000E+00 0.000000000E+00 0.000000000E+00 0.000000000E+00
 0.000000000E+00 0.000000000E+00 0.000000000E+00 0.000000000E+00 0.000000000E+00
 0.000000000E+00 0.000000000E+00 0.000000000E+00 0.000000000E+00 0.000000000E+00
 0.000000000E+00 0.000000000E+00
! Orbital:    22 Occ:  0.000000 from fragment   1
-0.526000000E-01-0.457990000E+00 0.000000000E+00 0.000000000E+00 0.208600000E-01
 0.149845000E+01 0.000000000E+00 0.000000000E+00 0.424370000E+00 0.450670000E+00
 0.450680000E+00-0.107042000E+01 0.000000000E+00 0.000000000E+00 0.000000000E+00
-0.467070000E+00-0.196830000E+00-0.467070000E+00-0.196830000E+00-0.467070000E+00
-0.196830000E+00 0.000000000E+00 0.000000000E+00 0.000000000E+00 0.000000000E+00
 0.000000000E+00 0.000000000E+00 0.000000000E+00 0.000000000E+00 0.000000000E+00
 0.000000000E+00 0.000000000E+00 0.000000000E+00 0.000000000E+00 0.000000000E+00
 0.000000000E+00 0.000000000E+00 0.000000000E+00 0.000000000E+00 0.000000000E+00
 0.000000000E+00 0.000000000E+00
! Orbital:    23 Occ:  0.000000 from fragment   1
 0.000000000E+00 0.000000000E+00 0.000000000E+00-0.626100000E-01 0.000000000E+00
 0.000000000E+00 0.000000000E+00-0.677920000E+00 0.000000000E+00 0.812350000E+00
-0.812350000E+00 0.000000000E+00 0.000000000E+00 0.000000000E+00-0.748980000E+00
 0.913530000E+00-0.187200000E-01-0.456770000E+00 0.936000000E-02-0.456770000E+00
 0.936000000E-02 0.000000000E+00 0.000000000E+00 0.000000000E+00 0.000000000E+00
 0.000000000E+00 0.000000000E+00 0.000000000E+00 0.000000000E+00 0.000000000E+00
 0.000000000E+00 0.000000000E+00 0.000000000E+00 0.000000000E+00 0.000000000E+00
 0.000000000E+00 0.000000000E+00 0.000000000E+00 0.000000000E+00 0.000000000E+00
 0.000000000E+00 0.000000000E+00
! Orbital:    24 Occ:  0.000000 from fragment   1
 0.000000000E+00 0.000000000E+00-0.626100000E-01 0.000000000E+00 0.000000000E+00
 0.000000000E+00-0.677920000E+00 0.000000000E+00 0.000000000E+00 0.000000000E+00
 0.000000000E+00 0.000000000E+00 0.938020000E+00-0.748980000E+00 0.000000000E+00
 0.000000000E+00 0.000000000E+00 0.791140000E+00-0.162100000E-01-0.791140000E+00
 0.162100000E-01 0.000000000E+00 0.000000000E+00 0.000000000E+00 0.000000000E+00
 0.000000000E+00 0.000000000E+00 0.000000000E+00 0.000000000E+00 0.000000000E+00
 0.000000000E+00 0.000000000E+00 0.000000000E+00 0.000000000E+00 0.000000000E+00
 0.000000000E+00 0.000000000E+00 0.000000000E+00 0.000000000E+00 0.000000000E+00
 0.000000000E+00 0.000000000E+00
! Orbital:    25 Occ:  0.000000 from fragment   1
-0.466240000E+00 0.116418000E+01 0.000000000E+00 0.000000000E+00-0.930100000E-01
 0.318890000E+01 0.000000000E+00 0.000000000E+00 0.306040000E+00-0.150249000E+01
-0.150249000E+01-0.152516000E+01 0.000000000E+00 0.000000000E+00 0.000000000E+00
 0.141770000E+00-0.564570000E+00 0.141770000E+00-0.564570000E+00 0.141770000E+00
-0.564570000E+00 0.000000000E+00 0.000000000E+00 0.000000000E+00 0.000000000E+00
 0.000000000E+00 0.000000000E+00 0.000000000E+00 0.000000000E+00 0.000000000E+00
 0.000000000E+00 0.000000000E+00 0.000000000E+00 0.000000000E+00 0.000000000E+00
 0.000000000E+00 0.000000000E+00 0.000000000E+00 0.000000000E+00 0.000000000E+00
 0.000000000E+00 0.000000000E+00
! Orbital:    26 Occ:  0.000000 from fragment   2
 0.000000000E+00 0.000000000E+00 0.000000000E+00 0.000000000E+00 0.000000000E+00
 0.000000000E+00 0.000000000E+00 0.000000000E+00 0.000000000E+00 0.000000000E+00
 0.000000000E+00 0.000000000E+00 0.000000000E+00 0.000000000E+00 0.000000000E+00
 0.000000000E+00 0.000000000E+00 0.000000000E+00 0.000000000E+00 0.000000000E+00
 0.000000000E+00-0.559600000E-01 0.716000000E-01 0.000000000E+00 0.000000000E+00
 0.472000000E+00 0.327740000E+00 0.000000000E+00 0.000000000E+00 0.555610000E+00
-0.155000000E-02-0.155000000E-02 0.323000000E-02 0.000000000E+00 0.000000000E+00
 0.000000000E+00-0.519800000E-01-0.792000000E-01-0.519800000E-01-0.792000000E-01
-0.519800000E-01-0.792000000E-01
! Orbital:    27 Occ:  0.000000 from fragment   2
 0.000000000E+00 0.000000000E+00 0.000000000E+00 0.000000000E+00 0.000000000E+00
 0.000000000E+00 0.000000000E+00 0.000000000E+00 0.000000000E+00 0.000000000E+00
 0.000000000E+00 0.000000000E+00 0.000000000E+00 0.000000000E+00 0.000000000E+00
 0.000000000E+00 0.000000000E+00 0.000000000E+00 0.000000000E+00 0.000000000E+00
 0.000000000E+00 0.000000000E+00 0.000000000E+00 0.328570000E+00 0.000000000E+00
 0.000000000E+00 0.000000000E+00 0.169285000E+01 0.000000000E+00 0.000000000E+00
 0.000000000E+00 0.000000000E+00 0.000000000E+00-0.297400000E-01 0.126300000E-01
 0.000000000E+00 0.110000000E+00 0.153102000E+01 0.000000000E+00 0.000000000E+00
-0.110000000E+00-0.153102000E+01
! Orbital:    28 Occ:  0.000000 from fragment   2
 0.000000000E+00 0.000000000E+00 0.000000000E+00 0.000000000E+00 0.000000000E+00
 0.000000000E+00 0.000000000E+00 0.000000000E+00 0.000000000E+00 0.000000000E+00
 0.000000000E+00 0.000000000E+00 0.000000000E+00 0.000000000E+00 0.000000000E+00
 0.000000000E+00 0.000000000E+00 0.000000000E+00 0.000000000E+00 0.000000000E+00
 0.000000000E+00 0.000000000E+00 0.000000000E+00 0.000000000E+00 0.328570000E+00
 0.000000000E+00 0.100000000E-04 0.000000000E+00 0.169285000E+01 0.000000000E+00
-0.257600000E-01 0.257600000E-01 0.000000000E+00 0.000000000E+00 0.000000000E+00
 0.126300000E-01-0.635100000E-01-0.883940000E+00 0.127010000E+00 0.176786000E+01
-0.635100000E-01-0.883940000E+00
! Orbital:    29 Occ:  0.000000 from fragment   2
 0.000000000E+00 0.000000000E+00 0.000000000E+00 0.000000000E+00 0.000000000E+00
 0.000000000E+00 0.000000000E+00 0.000000000E+00 0.000000000E+00 0.000000000E+00
 0.000000000E+00 0.000000000E+00 0.000000000E+00 0.000000000E+00 0.000000000E+00
 0.000000000E+00 0.000000000E+00 0.000000000E+00 0.000000000E+00 0.000000000E+00
 0.000000000E+00-0.163230000E+00 0.268740000E+00 0.000000000E+00 0.000000000E+00
-0.116920000E+00 0.258464000E+01 0.000000000E+00-0.100000000E-04-0.641850000E+00
 0.184700000E-01 0.184700000E-01 0.297200000E-01 0.000000000E+00 0.000000000E+00
 0.000000000E+00-0.505000000E-01-0.134001000E+01-0.505000000E-01-0.134003000E+01
-0.505000000E-01-0.134001000E+01
! Orbital:    30 Occ:  0.000000 from fragment   2
 0.000000000E+00 0.000000000E+00 0.000000000E+00 0.000000000E+00 0.000000000E+00
 0.000000000E+00 0.000000000E+00 0.000000000E+00 0.000000000E+00 0.000000000E+00
 0.000000000E+00 0.000000000E+00 0.000000000E+00 0.000000000E+00 0.000000000E+00
 0.000000000E+00 0.000000000E+00 0.000000000E+00 0.000000000E+00 0.000000000E+00
 0.000000000E+00 0.000000000E+00 0.000000000E+00 0.000000000E+00-0.102475000E+01
 0.000000000E+00 0.000000000E+00 0.000000000E+00 0.128992000E+01 0.000000000E+00
-0.504500000E-01 0.504500000E-01 0.000000000E+00 0.000000000E+00 0.000000000E+00
 0.232200000E-01-0.106200000E+00-0.193700000E-01 0.212390000E+00 0.387500000E-01
-0.106200000E+00-0.193700000E-01
! Orbital:    31 Occ:  0.000000 from fragment   2
 0.000000000E+00 0.000000000E+00 0.000000000E+00 0.000000000E+00 0.000000000E+00
 0.000000000E+00 0.000000000E+00 0.000000000E+00 0.000000000E+00 0.000000000E+00
 0.000000000E+00 0.000000000E+00 0.000000000E+00 0.000000000E+00 0.000000000E+00
 0.000000000E+00 0.000000000E+00 0.000000000E+00 0.000000000E+00 0.000000000E+00
 0.000000000E+00 0.000000000E+00 0.000000000E+00-0.102476000E+01 0.000000000E+00
 0.000000000E+00 0.000000000E+00 0.128992000E+01 0.000000000E+00 0.000000000E+00
 0.000000000E+00 0.000000000E+00 0.000000000E+00-0.582600000E-01 0.232200000E-01
 0.000000000E+00 0.183940000E+00 0.335500000E-01 0.000000000E+00 0.000000000E+00
-0.183940000E+00-0.335500000E-01
! Orbital:    32 Occ:  0.000000 from fragment   2
 0.000000000E+00 0.000000000E+00 0.000000000E+00 0.000000000E+00 0.000000000E+00
 0.000000000E+00 0.000000000E+00 0.000000000E+00 0.000000000E+00 0.000000000E+00
 0.000000000E+00 0.000000000E+00 0.000000000E+00 0.000000000E+00 0.000000000E+00
 0.000000000E+00 0.000000000E+00 0.000000000E+00 0.000000000E+00 0.000000000E+00
 0.000000000E+00 0.214700000E-01-0.156400000E-01 0.000000000E+00 0.000000000E+00
-0.115736000E+01-0.204310000E+00 0.000000000E+00 0.000000000E+00 0.116536000E+01
 0.168400000E-01 0.168400000E-01-0.213200000E-01 0.000000000E+00 0.000000000E+00
 0.000000000E+00 0.686200000E-01 0.555300000E-01 0.686200000E-01 0.555300000E-01
 0.686200000E-01 0.555300000E-01
! Orbital:    33 Occ:  0.000000 from fragment   2
 0.000000000E+00 0.000000000E+00 0.000000000E+00 0.000000000E+00 0.000000000E+00
 0.000000000E+00 0.000000000E+00 0.000000000E+00 0.000000000E+00 0.000000000E+00
 0.000000000E+00 0.000000000E+00 0.000000000E+00 0.000000000E+00 0.000000000E+00
 0.000000000E+00 0.000000000E+00 0.000000000E+00 0.000000000E+00 0.000000000E+00
 0.000000000E+00-0.535600000E-01-0.158341000E+01 0.000000000E+00 0.000000000E+00
-0.127050000E+00 0.323943000E+01 0.000000000E+00 0.000000000E+00-0.324080000E+00
-0.138880000E+00-0.138880000E+00 0.493200000E-01 0.000000000E+00 0.000000000E+00
 0.000000000E+00-0.279540000E+00-0.588490000E+00-0.279540000E+00-0.588490000E+00
-0.279540000E+00-0.588490000E+00
! Orbital:    34 Occ:  0.000000 from fragment   2
 0.000000000E+00 0.000000000E+00 0.000000000E+00 0.000000000E+00 0.000000000E+00
 0.000000000E+00 0.000000000E+00 0.000000000E+00 0.000000000E+00 0.000000000E+00
 0.000000000E+00 0.000000000E+00 0.000000000E+00 0.000000000E+00 0.000000000E+00
 0.000000000E+00 0.000000000E+00 0.000000000E+00 0.000000000E+00 0.000000000E+00
 0.000000000E+00 0.000000000E+00 0.000000000E+00-0.635760000E+00 0.000000000E+00
 0.000000000E+00 0.000000000E+00 0.131797000E+01 0.000000000E+00 0.000000000E+00
 0.000000000E+00 0.000000000E+00 0.000000000E+00 0.340830000E+00-0.175840000E+00
 0.000000000E+00-0.750340000E+00 0.151743000E+01 0.000000000E+00 0.000000000E+00
 0.750340000E+00-0.151743000E+01
! Orbital:    35 Occ:  0.000000 from fragment   2
 0.000000000E+00 0.000000000E+00 0.000000000E+00 0.000000000E+00 0.000000000E+00
 0.000000000E+00 0.000000000E+00 0.000000000E+00 0.000000000E+00 0.000000000E+00
 0.000000000E+00 0.000000000E+00 0.000000000E+00 0.000000000E+00 0.000000000E+00
 0.000000000E+00 0.000000000E+00 0.000000000E+00 0.000000000E+00 0.000000000E+00
 0.000000000E+00 0.000000000E+00 0.000000000E+00 0.000000000E+00-0.635760000E+00
 0.000000000E+00 0.100000000E-04 0.000000000E+00 0.131797000E+01 0.000000000E+00
 0.295170000E+00-0.295170000E+00 0.000000000E+00 0.000000000E+00 0.000000000E+00
-0.175840000E+00 0.433210000E+00-0.876090000E+00-0.866420000E+00 0.175217000E+01
 0.433210000E+00-0.876090000E+00
! Orbital:    36 Occ:  0.000000 from fragment   2
 0.000000000E+00 0.000000000E+00 0.000000000E+00 0.000000000E+00 0.000000000E+00
 0.000000000E+00 0.000000000E+00 0.000000000E+00 0.000000000E+00 0.000000000E+00
 0.000000000E+00 0.000000000E+00 0.000000000E+00 0.000000000E+00 0.000000000E+00
 0.000000000E+00 0.000000000E+00 0.000000000E+00 0.000000000E+00 0.000000000E+00
 0.000000000E+00 0.461500000E-01-0.140587000E+01 0.000000000E+00 0.000000000E+00
 0.245460000E+00 0.338792000E+01 0.000000000E+00 0.000000000E+00-0.559660000E+00
 0.101500000E+00 0.101500000E+00-0.230190000E+00 0.000000000E+00 0.000000000E+00
 0.000000000E+00 0.648090000E+00-0.142308000E+01 0.648090000E+00-0.142309000E+01
 0.648090000E+00-0.142308000E+01
! Orbital:    37 Occ:  0.000000 from fragment   2
 0.000000000E+00 0.000000000E+00 0.000000000E+00 0.000000000E+00 0.000000000E+00
 0.000000000E+00 0.000000000E+00 0.000000000E+00 0.000000000E+00 0.000000000E+00
 0.000000000E+00 0.000000000E+00 0.000000000E+00 0.000000000E+00 0.000000000E+00
 0.000000000E+00 0.000000000E+00 0.000000000E+00 0.000000000E+00 0.000000000E+00
 0.000000000E+00 0.000000000E+00 0.000000000E+00 0.000000000E+00-0.111000000E-02
 0.000000000E+00 0.000000000E+00 0.000000000E+00 0.157100000E-01 0.000000000E+00
 0.413490000E+00-0.413490000E+00 0.000000000E+00 0.000000000E+00 0.000000000E+00
 0.878650000E+00-0.964000000E-02-0.190000000E-03 0.192900000E-01 0.370000000E-03
-0.964000000E-02-0.190000000E-03
! Orbital:    38 Occ:  0.000000 from fragment   2
 0.000000000E+00 0.000000000E+00 0.000000000E+00 0.000000000E+00 0.000000000E+00
 0.000000000E+00 0.000000000E+00 0.000000000E+00 0.000000000E+00 0.000000000E+00
 0.000000000E+00 0.000000000E+00 0.000000000E+00 0.000000000E+00 0.000000000E+00
 0.000000000E+00 0.000000000E+00 0.000000000E+00 0.000000000E+00 0.000000000E+00
 0.000000000E+00 0.000000000E+00 0.000000000E+00-0.111000000E-02 0.000000000E+00
 0.000000000E+00 0.000000000E+00 0.157100000E-01 0.000000000E+00 0.000000000E+00
 0.000000000E+00 0.000000000E+00 0.000000000E+00 0.477450000E+00 0.878650000E+00
 0.000000000E+00 0.167000000E-01 0.320000000E-03 0.000000000E+00 0.000000000E+00
-0.167000000E-01-0.320000000E-03
! Orbital:    39 Occ:  0.000000 from fragment   2
 0.000000000E+00 0.000000000E+00 0.000000000E+00 0.000000000E+00 0.000000000E+00
 0.000000000E+00 0.000000000E+00 0.000000000E+00 0.000000000E+00 0.000000000E+00
 0.000000000E+00 0.000000000E+00 0.000000000E+00 0.000000000E+00 0.000000000E+00
 0.000000000E+00 0.000000000E+00 0.000000000E+00 0.000000000E+00 0.000000000E+00
 0.000000000E+00 0.619300000E-01 0.104900000E+00 0.000000000E+00 0.000000000E+00
 0.530900000E-01-0.802030000E+00 0.000000000E+00 0.000000000E+00 0.171450000E+00
-0.499360000E+00-0.499360000E+00 0.106202000E+01 0.000000000E+00 0.000000000E+00
 0.000000000E+00 0.380930000E+00 0.121490000E+00 0.380930000E+00 0.121490000E+00
 0.380930000E+00 0.121490000E+00
! Orbital:    40 Occ:  0.000000 from fragment   2
 0.000000000E+00 0.000000000E+00 0.000000000E+00 0.000000000E+00 0.000000000E+00
 0.000000000E+00 0.000000000E+00 0.000000000E+00 0.000000000E+00 0.000000000E+00
 0.000000000E+00 0.000000000E+00 0.000000000E+00 0.000000000E+00 0.000000000E+00
 0.000000000E+00 0.000000000E+00 0.000000000E+00 0.000000000E+00 0.000000000E+00
 0.000000000E+00 0.000000000E+00 0.000000000E+00 0.276540000E+00 0.000000000E+00
 0.000000000E+00 0.000000000E+00 0.247990000E+00 0.000000000E+00 0.000000000E+00