# opt b3lyp/6-31g(d)

B3LYP/6-31G* opted

0 1
 N                  0.00000000    0.00000000    0.73100200
 H                  0.00000000    0.95142200    1.09979200
 H                  0.82395500   -0.47571100    1.09979200
 H                 -0.82395500   -0.47571100    1.09979200
 B                  0.00000000    0.00000000   -0.93825400
 H                 -1.01546100    0.58627700   -1.24170800
 H                  0.00000000   -1.17255300   -1.24170800
 H                  1.01546100    0.58627700   -1.24170800

