#p b3lyp/6-31+G* nmr=csgt iop(10/93=2) geom=connectivity

template file

  1  1
C     0.000000    1.612000    0.000000
C     1.260000    1.005000    0.000000
C     1.572000   -0.359000    0.000000
C    -1.260000    1.005000    0.000000
C     0.699000   -1.452000    0.000000
C    -1.572000   -0.359000    0.000000
C    -0.699000   -1.452000    0.000000
H     0.000000    2.700000    0.000000
H     2.111000    1.683000    0.000000
H     2.632000   -0.601000    0.000000
H    -2.111000    1.683000    0.000000
H     1.171000   -2.432000    0.000000
H    -2.632000   -0.601000    0.000000
H    -1.171000   -2.432000    0.000000
Bq    0.000000   -0.000000  -10.000000
Bq    0.000000   -0.000000   -9.899497
Bq    0.000000   -0.000000   -9.798995
Bq    0.000000   -0.000000   -9.698492
Bq    0.000000   -0.000000   -9.597990
Bq    0.000000   -0.000000   -9.497487
Bq    0.000000   -0.000000   -9.396985
Bq    0.000000   -0.000000   -9.296482
Bq    0.000000   -0.000000   -9.195980
Bq    0.000000   -0.000000   -9.095477
Bq    0.000000   -0.000000   -8.994975
Bq    0.000000   -0.000000   -8.894472
Bq    0.000000   -0.000000   -8.793970
Bq    0.000000   -0.000000   -8.693467
Bq    0.000000   -0.000000   -8.592965
Bq    0.000000   -0.000000   -8.492462
Bq    0.000000   -0.000000   -8.391960
Bq    0.000000   -0.000000   -8.291457
Bq    0.000000   -0.000000   -8.190955
Bq    0.000000   -0.000000   -8.090452
Bq    0.000000   -0.000000   -7.989950
Bq    0.000000   -0.000000   -7.889447
Bq    0.000000   -0.000000   -7.788945
Bq    0.000000   -0.000000   -7.688442
Bq    0.000000   -0.000000   -7.587940
Bq    0.000000   -0.000000   -7.487437
Bq    0.000000   -0.000000   -7.386935
Bq    0.000000   -0.000000   -7.286432
Bq    0.000000   -0.000000   -7.185930
Bq    0.000000   -0.000000   -7.085427
Bq    0.000000   -0.000000   -6.984925
Bq    0.000000   -0.000000   -6.884422
Bq    0.000000   -0.000000   -6.783920
Bq    0.000000   -0.000000   -6.683417
Bq    0.000000   -0.000000   -6.582915
Bq    0.000000   -0.000000   -6.482412
Bq    0.000000   -0.000000   -6.381910
Bq    0.000000   -0.000000   -6.281407
Bq    0.000000   -0.000000   -6.180905
Bq    0.000000   -0.000000   -6.080402
Bq    0.000000   -0.000000   -5.979899
Bq    0.000000   -0.000000   -5.879397
Bq    0.000000   -0.000000   -5.778894
Bq    0.000000   -0.000000   -5.678392
Bq    0.000000   -0.000000   -5.577889
Bq    0.000000   -0.000000   -5.477387
Bq    0.000000   -0.000000   -5.376884
Bq    0.000000   -0.000000   -5.276382
Bq    0.000000   -0.000000   -5.175879
Bq    0.000000   -0.000000   -5.075377
Bq    0.000000   -0.000000   -4.974874
Bq    0.000000   -0.000000   -4.874372
Bq    0.000000   -0.000000   -4.773869
Bq    0.000000   -0.000000   -4.673367
Bq    0.000000   -0.000000   -4.572864
Bq    0.000000   -0.000000   -4.472362
Bq    0.000000   -0.000000   -4.371859
Bq    0.000000   -0.000000   -4.271357
Bq    0.000000   -0.000000   -4.170854
Bq    0.000000   -0.000000   -4.070352
Bq    0.000000   -0.000000   -3.969849
Bq    0.000000   -0.000000   -3.869347
Bq    0.000000   -0.000000   -3.768844
Bq    0.000000   -0.000000   -3.668342
Bq    0.000000   -0.000000   -3.567839
Bq    0.000000   -0.000000   -3.467337
Bq    0.000000   -0.000000   -3.366834
Bq    0.000000   -0.000000   -3.266332
Bq    0.000000   -0.000000   -3.165829
Bq    0.000000   -0.000000   -3.065327
Bq    0.000000   -0.000000   -2.964824
Bq    0.000000   -0.000000   -2.864322
Bq    0.000000   -0.000000   -2.763819
Bq    0.000000   -0.000000   -2.663317
Bq    0.000000   -0.000000   -2.562814
Bq    0.000000   -0.000000   -2.462312
Bq    0.000000   -0.000000   -2.361809
Bq    0.000000   -0.000000   -2.261307
Bq    0.000000   -0.000000   -2.160804
Bq    0.000000   -0.000000   -2.060302
Bq    0.000000   -0.000000   -1.959799
Bq    0.000000   -0.000000   -1.859296
Bq    0.000000   -0.000000   -1.758794
Bq    0.000000   -0.000000   -1.658291
Bq    0.000000   -0.000000   -1.557789
Bq    0.000000   -0.000000   -1.457286
Bq    0.000000   -0.000000   -1.356784
Bq    0.000000   -0.000000   -1.256281
Bq    0.000000   -0.000000   -1.155779
Bq    0.000000   -0.000000   -1.055276
Bq    0.000000   -0.000000   -0.954774
Bq    0.000000   -0.000000   -0.854271
Bq    0.000000   -0.000000   -0.753769
Bq    0.000000   -0.000000   -0.653266
Bq    0.000000   -0.000000   -0.552764
Bq    0.000000   -0.000000   -0.452261
Bq    0.000000   -0.000000   -0.351759
Bq    0.000000   -0.000000   -0.251256
Bq    0.000000   -0.000000   -0.150754
Bq    0.000000   -0.000000   -0.050251
Bq    0.000000   -0.000000    0.050251
Bq    0.000000   -0.000000    0.150754
Bq    0.000000   -0.000000    0.251256
Bq    0.000000   -0.000000    0.351759
Bq    0.000000   -0.000000    0.452261
Bq    0.000000   -0.000000    0.552764
Bq    0.000000   -0.000000    0.653266
Bq    0.000000   -0.000000    0.753769
Bq    0.000000   -0.000000    0.854271
Bq    0.000000   -0.000000    0.954774
Bq    0.000000   -0.000000    1.055276
Bq    0.000000   -0.000000    1.155779
Bq    0.000000   -0.000000    1.256281
Bq    0.000000   -0.000000    1.356784
Bq    0.000000   -0.000000    1.457286
Bq    0.000000   -0.000000    1.557789
Bq    0.000000   -0.000000    1.658291
Bq    0.000000   -0.000000    1.758794
Bq    0.000000   -0.000000    1.859296
Bq    0.000000   -0.000000    1.959799
Bq    0.000000   -0.000000    2.060302
Bq    0.000000   -0.000000    2.160804
Bq    0.000000   -0.000000    2.261307
Bq    0.000000   -0.000000    2.361809
Bq    0.000000   -0.000000    2.462312
Bq    0.000000   -0.000000    2.562814
Bq    0.000000   -0.000000    2.663317
Bq    0.000000   -0.000000    2.763819
Bq    0.000000   -0.000000    2.864322
Bq    0.000000   -0.000000    2.964824
Bq    0.000000   -0.000000    3.065327
Bq    0.000000   -0.000000    3.165829
Bq    0.000000   -0.000000    3.266332
Bq    0.000000   -0.000000    3.366834
Bq    0.000000   -0.000000    3.467337
Bq    0.000000   -0.000000    3.567839
Bq    0.000000   -0.000000    3.668342
Bq    0.000000   -0.000000    3.768844
Bq    0.000000   -0.000000    3.869347
Bq    0.000000   -0.000000    3.969849
Bq    0.000000   -0.000000    4.070352
Bq    0.000000   -0.000000    4.170854
Bq    0.000000   -0.000000    4.271357
Bq    0.000000   -0.000000    4.371859
Bq    0.000000   -0.000000    4.472362
Bq    0.000000   -0.000000    4.572864
Bq    0.000000   -0.000000    4.673367
Bq    0.000000   -0.000000    4.773869
Bq    0.000000   -0.000000    4.874372
Bq    0.000000   -0.000000    4.974874
Bq    0.000000   -0.000000    5.075377
Bq    0.000000   -0.000000    5.175879
Bq    0.000000   -0.000000    5.276382
Bq    0.000000   -0.000000    5.376884
Bq    0.000000   -0.000000    5.477387
Bq    0.000000   -0.000000    5.577889
Bq    0.000000   -0.000000    5.678392
Bq    0.000000   -0.000000    5.778894
Bq    0.000000   -0.000000    5.879397
Bq    0.000000   -0.000000    5.979899
Bq    0.000000   -0.000000    6.080402
Bq    0.000000   -0.000000    6.180905
Bq    0.000000   -0.000000    6.281407
Bq    0.000000   -0.000000    6.381910
Bq    0.000000   -0.000000    6.482412
Bq    0.000000   -0.000000    6.582915
Bq    0.000000   -0.000000    6.683417
Bq    0.000000   -0.000000    6.783920
Bq    0.000000   -0.000000    6.884422
Bq    0.000000   -0.000000    6.984925
Bq    0.000000   -0.000000    7.085427
Bq    0.000000   -0.000000    7.185930
Bq    0.000000   -0.000000    7.286432
Bq    0.000000   -0.000000    7.386935
Bq    0.000000   -0.000000    7.487437
Bq    0.000000   -0.000000    7.587940
Bq    0.000000   -0.000000    7.688442
Bq    0.000000   -0.000000    7.788945
Bq    0.000000   -0.000000    7.889447
Bq    0.000000   -0.000000    7.989950
Bq    0.000000   -0.000000    8.090452
Bq    0.000000   -0.000000    8.190955
Bq    0.000000   -0.000000    8.291457
Bq    0.000000   -0.000000    8.391960
Bq    0.000000   -0.000000    8.492462
Bq    0.000000   -0.000000    8.592965
Bq    0.000000   -0.000000    8.693467
Bq    0.000000   -0.000000    8.793970
Bq    0.000000   -0.000000    8.894472
Bq    0.000000   -0.000000    8.994975
Bq    0.000000   -0.000000    9.095477
Bq    0.000000   -0.000000    9.195980
Bq    0.000000   -0.000000    9.296482
Bq    0.000000   -0.000000    9.396985
Bq    0.000000   -0.000000    9.497487
Bq    0.000000   -0.000000    9.597990
Bq    0.000000   -0.000000    9.698492
Bq    0.000000   -0.000000    9.798995
Bq    0.000000   -0.000000    9.899497
Bq    0.000000   -0.000000   10.000000
 
     1
     2
     3
     4
     5
     6
     7
     8
     9
    10
    11
    12
    13
    14
    15
    16
    17
    18
    19
    20
    21
    22
    23
    24
    25
    26
    27
    28
    29
    30
    31
    32
    33
    34
    35
    36
    37
    38
    39
    40
    41
    42
    43
    44
    45
    46
    47
    48
    49
    50
    51
    52
    53
    54
    55
    56
    57
    58
    59
    60
    61
    62
    63
    64
    65
    66
    67
    68
    69
    70
    71
    72
    73
    74
    75
    76
    77
    78
    79
    80
    81
    82
    83
    84
    85
    86
    87
    88
    89
    90
    91
    92
    93
    94
    95
    96
    97
    98
    99
   100
   101
   102
   103
   104
   105
   106
   107
   108
   109
   110
   111
   112
   113
   114
   115
   116
   117
   118
   119
   120
   121
   122
   123
   124
   125
   126
   127
   128
   129
   130
   131
   132
   133
   134
   135
   136
   137
   138
   139
   140
   141
   142
   143
   144
   145
   146
   147
   148
   149
   150
   151
   152
   153
   154
   155
   156
   157
   158
   159
   160
   161
   162
   163
   164
   165
   166
   167
   168
   169
   170
   171
   172
   173
   174
   175
   176
   177
   178
   179
   180
   181
   182
   183
   184
   185
   186
   187
   188
   189
   190
   191
   192
   193
   194
   195
   196
   197
   198
   199
   200
   201
   202
   203
   204
   205
   206
   207
   208
   209
   210
   211
   212
   213
   214

AICD.txt

1-19,21,22

 
 
