#p b3lyp/6-31G* NMR geom=connectivity

template file

  0  1
C     0.000000    1.422000    0.000000
C     0.904000    2.135000    0.804000
C    -0.904000    2.135000   -0.804000
C     0.906000    3.529000    0.793000
H     1.601000    1.592000    1.433000
C    -0.906000    3.529000   -0.793000
H    -1.601000    1.592000   -1.433000
C     0.000000    4.236000    0.000000
H     1.613000    4.064000    1.422000
H    -1.613000    4.064000   -1.422000
H     0.000000    5.322000    0.000000
C    -1.231000   -0.711000    0.000000
C    -2.301000   -0.285000    0.804000
C    -1.397000   -1.851000   -0.804000
C    -3.509000   -0.980000    0.793000
H    -2.179000    0.591000    1.433000
C    -2.603000   -2.549000   -0.793000
H    -0.578000   -2.183000   -1.433000
C    -3.668000   -2.118000    0.000000
H    -4.326000   -0.635000    1.422000
H    -2.713000   -3.429000   -1.422000
H    -4.609000   -2.661000    0.000000
C     1.231000   -0.711000    0.000000
C     2.301000   -0.285000   -0.804000
C     1.397000   -1.851000    0.804000
C     3.509000   -0.980000   -0.793000
H     2.179000    0.591000   -1.433000
C     2.603000   -2.549000    0.793000
H     0.578000   -2.183000    1.433000
C     3.668000   -2.118000    0.000000
H     4.326000   -0.635000   -1.422000
H     2.713000   -3.429000    1.422000
H     4.609000   -2.661000    0.000000
N     0.000000    0.000000    0.000000
Bq   -0.545655   -0.336127    1.830754
Bq   -0.509980   -0.369722    1.840689
Bq   -0.474305   -0.403317    1.850625
Bq   -0.438631   -0.436912    1.860560
Bq   -0.402956   -0.470507    1.870495
Bq   -0.367282   -0.504102    1.880431
Bq   -0.331607   -0.537696    1.890366
Bq   -0.295932   -0.571291    1.900301
Bq   -0.260258   -0.604886    1.910237
Bq   -0.224583   -0.638481    1.920172
Bq   -0.188909   -0.672076    1.930107
Bq   -0.153234   -0.705670    1.940043
Bq   -0.117559   -0.739265    1.949978
Bq   -0.081885   -0.772860    1.959914
Bq   -0.046210   -0.806455    1.969849
Bq   -0.010536   -0.840050    1.979784
Bq    0.025139   -0.873645    1.989720
Bq    0.060814   -0.907239    1.999655
Bq    0.096488   -0.940834    2.009590
Bq    0.132163   -0.974429    2.019526
Bq    0.167837   -1.008024    2.029461
Bq    0.203512   -1.041619    2.039396
Bq    0.239186   -1.075214    2.049332
Bq    0.274861   -1.108808    2.059267
Bq    0.310536   -1.142403    2.069202
Bq    0.346210   -1.175998    2.079138
Bq    0.381885   -1.209593    2.089073
Bq    0.417559   -1.243188    2.099009
Bq    0.453234   -1.276782    2.108944
Bq    0.488909   -1.310377    2.118879
Bq    0.524583   -1.343972    2.128815
Bq    0.560258   -1.377567    2.138750
Bq    0.595932   -1.411162    2.148685
Bq    0.631607   -1.444757    2.158621
Bq    0.667282   -1.478351    2.168556
Bq    0.702956   -1.511946    2.178491
Bq    0.738631   -1.545541    2.188427
Bq    0.774305   -1.579136    2.198362
Bq    0.809980   -1.612731    2.208298
Bq    0.845655   -1.646325    2.218233
Bq    0.881329   -1.679920    2.228168
Bq    0.917004   -1.713515    2.238104
Bq    0.952678   -1.747110    2.248039
Bq    0.988353   -1.780705    2.257974
Bq    1.024028   -1.814300    2.267910
Bq    1.059702   -1.847894    2.277845
Bq    1.095377   -1.881489    2.287780
Bq    1.131051   -1.915084    2.297716
Bq    1.166726   -1.948679    2.307651
Bq    1.202401   -1.982274    2.317586
Bq    1.238075   -2.015869    2.327522
Bq    1.273750   -2.049463    2.337457
Bq    1.309424   -2.083058    2.347393
Bq    1.345099   -2.116653    2.357328
Bq    1.380773   -2.150248    2.367263
Bq    1.416448   -2.183843    2.377199
Bq    1.452123   -2.217437    2.387134
Bq    1.487797   -2.251032    2.397069
Bq    1.523472   -2.284627    2.407005
Bq    1.559146   -2.318222    2.416940
Bq    1.594821   -2.351817    2.426875
Bq    1.630496   -2.385412    2.436811
Bq    1.666170   -2.419006    2.446746
Bq    1.701845   -2.452601    2.456681
Bq    1.737519   -2.486196    2.466617
Bq    1.773194   -2.519791    2.476552
Bq    1.808869   -2.553386    2.486488
Bq    1.844543   -2.586980    2.496423
Bq    1.880218   -2.620575    2.506358
Bq    1.915892   -2.654170    2.516294
Bq    1.951567   -2.687765    2.526229
Bq    1.987242   -2.721360    2.536164
Bq    2.022916   -2.754955    2.546100
Bq    2.058591   -2.788549    2.556035
Bq    2.094265   -2.822144    2.565970
Bq    2.129940   -2.855739    2.575906
Bq    2.165615   -2.889334    2.585841
Bq    2.201289   -2.922929    2.595777
Bq    2.236964   -2.956523    2.605712
Bq    2.272638   -2.990118    2.615647
Bq    2.308313   -3.023713    2.625583
Bq    2.343988   -3.057308    2.635518
Bq    2.379662   -3.090903    2.645453
Bq    2.415337   -3.124498    2.655389
Bq    2.451011   -3.158092    2.665324
Bq    2.486686   -3.191687    2.675259
Bq    2.522360   -3.225282    2.685195
Bq    2.558035   -3.258877    2.695130
Bq    2.593710   -3.292472    2.705065
Bq    2.629384   -3.326067    2.715001
Bq    2.665059   -3.359661    2.724936
Bq    2.700733   -3.393256    2.734872
Bq    2.736408   -3.426851    2.744807
Bq    2.772083   -3.460446    2.754742
Bq    2.807757   -3.494041    2.764678
Bq    2.843432   -3.527635    2.774613
Bq    2.879106   -3.561230    2.784548
Bq    2.914781   -3.594825    2.794484
Bq    2.950456   -3.628420    2.804419
Bq    2.986130   -3.662015    2.814354
Bq   -0.514771   -0.312663    1.799200
Bq   -0.479096   -0.346258    1.809136
Bq   -0.443422   -0.379853    1.819071
Bq   -0.407747   -0.413448    1.829006
Bq   -0.372072   -0.447043    1.838942
Bq   -0.336398   -0.480637    1.848877
Bq   -0.300723   -0.514232    1.858812
Bq   -0.265049   -0.547827    1.868748
Bq   -0.229374   -0.581422    1.878683
Bq   -0.193699   -0.615017    1.888618
Bq   -0.158025   -0.648612    1.898554
Bq   -0.122350   -0.682206    1.908489
Bq   -0.086676   -0.715801    1.918425
Bq   -0.051001   -0.749396    1.928360
Bq   -0.015326   -0.782991    1.938295
Bq    0.020348   -0.816586    1.948231
Bq    0.056023   -0.850181    1.958166
Bq    0.091697   -0.883775    1.968101
Bq    0.127372   -0.917370    1.978037
Bq    0.163047   -0.950965    1.987972
Bq    0.198721   -0.984560    1.997907
Bq    0.234396   -1.018155    2.007843
Bq    0.270070   -1.051749    2.017778
Bq    0.305745   -1.085344    2.027714
Bq    0.341419   -1.118939    2.037649
Bq    0.377094   -1.152534    2.047584
Bq    0.412769   -1.186129    2.057520
Bq    0.448443   -1.219724    2.067455
Bq    0.484118   -1.253318    2.077390
Bq    0.519792   -1.286913    2.087326
Bq    0.555467   -1.320508    2.097261
Bq    0.591142   -1.354103    2.107196
Bq    0.626816   -1.387698    2.117132
Bq    0.662491   -1.421292    2.127067
Bq    0.698165   -1.454887    2.137002
Bq    0.733840   -1.488482    2.146938
Bq    0.769515   -1.522077    2.156873
Bq    0.805189   -1.555672    2.166809
Bq    0.840864   -1.589267    2.176744
Bq    0.876538   -1.622861    2.186679
Bq    0.912213   -1.656456    2.196615
Bq    0.947888   -1.690051    2.206550
Bq    0.983562   -1.723646    2.216485
Bq    1.019237   -1.757241    2.226421
Bq    1.054911   -1.790836    2.236356
Bq    1.090586   -1.824430    2.246291
Bq    1.126261   -1.858025    2.256227
Bq    1.161935   -1.891620    2.266162
Bq    1.197610   -1.925215    2.276098
Bq    1.233284   -1.958810    2.286033
Bq    1.268959   -1.992404    2.295968
Bq    1.304634   -2.025999    2.305904
Bq    1.340308   -2.059594    2.315839
Bq    1.375983   -2.093189    2.325774
Bq    1.411657   -2.126784    2.335710
Bq    1.447332   -2.160379    2.345645
Bq    1.483006   -2.193973    2.355580
Bq    1.518681   -2.227568    2.365516
Bq    1.554356   -2.261163    2.375451
Bq    1.590030   -2.294758    2.385386
Bq    1.625705   -2.328353    2.395322
Bq    1.661379   -2.361947    2.405257
Bq    1.697054   -2.395542    2.415193
Bq    1.732729   -2.429137    2.425128
Bq    1.768403   -2.462732    2.435063
Bq    1.804078   -2.496327    2.444999
Bq    1.839752   -2.529922    2.454934
Bq    1.875427   -2.563516    2.464869
Bq    1.911102   -2.597111    2.474805
Bq    1.946776   -2.630706    2.484740
Bq    1.982451   -2.664301    2.494675
Bq    2.018125   -2.697896    2.504611
Bq    2.053800   -2.731491    2.514546
Bq    2.089475   -2.765085    2.524482
Bq    2.125149   -2.798680    2.534417
Bq    2.160824   -2.832275    2.544352
Bq    2.196498   -2.865870    2.554288
Bq    2.232173   -2.899465    2.564223
Bq    2.267848   -2.933059    2.574158
Bq    2.303522   -2.966654    2.584094
Bq    2.339197   -3.000249    2.594029
Bq    2.374871   -3.033844    2.603964
Bq    2.410546   -3.067439    2.613900
Bq    2.446221   -3.101034    2.623835
Bq    2.481895   -3.134628    2.633770
Bq    2.517570   -3.168223    2.643706
Bq    2.553244   -3.201818    2.653641
Bq    2.588919   -3.235413    2.663577
Bq    2.624593   -3.269008    2.673512
Bq    2.660268   -3.302602    2.683447
Bq    2.695943   -3.336197    2.693383
Bq    2.731617   -3.369792    2.703318
Bq    2.767292   -3.403387    2.713253
Bq    2.802966   -3.436982    2.723189
Bq    2.838641   -3.470577    2.733124
Bq    2.874316   -3.504171    2.743059
Bq    2.909990   -3.537766    2.752995
Bq    2.945665   -3.571361    2.762930
Bq    2.981339   -3.604956    2.772865
Bq    3.017014   -3.638551    2.782801
Bq   -0.483887   -0.289199    1.767647
Bq   -0.448212   -0.322794    1.777582
Bq   -0.412538   -0.356389    1.787517
Bq   -0.376863   -0.389984    1.797453
Bq   -0.341189   -0.423579    1.807388
Bq   -0.305514   -0.457173    1.817323
Bq   -0.269839   -0.490768    1.827259
Bq   -0.234165   -0.524363    1.837194
Bq   -0.198490   -0.557958    1.847130
Bq   -0.162816   -0.591553    1.857065
Bq   -0.127141   -0.625148    1.867000
Bq   -0.091466   -0.658742    1.876936
Bq   -0.055792   -0.692337    1.886871
Bq   -0.020117   -0.725932    1.896806
Bq    0.015557   -0.759527    1.906742
Bq    0.051232   -0.793122    1.916677
Bq    0.086907   -0.826716    1.926612
Bq    0.122581   -0.860311    1.936548
Bq    0.158256   -0.893906    1.946483
Bq    0.193930   -0.927501    1.956419
Bq    0.229605   -0.961096    1.966354
Bq    0.265280   -0.994691    1.976289
Bq    0.300954   -1.028285    1.986225
Bq    0.336629   -1.061880    1.996160
Bq    0.372303   -1.095475    2.006095
Bq    0.407978   -1.129070    2.016031
Bq    0.443652   -1.162665    2.025966
Bq    0.479327   -1.196260    2.035901
Bq    0.515002   -1.229854    2.045837
Bq    0.550676   -1.263449    2.055772
Bq    0.586351   -1.297044    2.065707
Bq    0.622025   -1.330639    2.075643
Bq    0.657700   -1.364234    2.085578
Bq    0.693375   -1.397828    2.095514
Bq    0.729049   -1.431423    2.105449
Bq    0.764724   -1.465018    2.115384
Bq    0.800398   -1.498613    2.125320
Bq    0.836073   -1.532208    2.135255
Bq    0.871748   -1.565803    2.145190
Bq    0.907422   -1.599397    2.155126
Bq    0.943097   -1.632992    2.165061
Bq    0.978771   -1.666587    2.174996
Bq    1.014446   -1.700182    2.184932
Bq    1.050121   -1.733777    2.194867
Bq    1.085795   -1.767371    2.204802
Bq    1.121470   -1.800966    2.214738
Bq    1.157144   -1.834561    2.224673
Bq    1.192819   -1.868156    2.234609
Bq    1.228494   -1.901751    2.244544
Bq    1.264168   -1.935346    2.254479
Bq    1.299843   -1.968940    2.264415
Bq    1.335517   -2.002535    2.274350
Bq    1.371192   -2.036130    2.284285
Bq    1.406867   -2.069725    2.294221
Bq    1.442541   -2.103320    2.304156
Bq    1.478216   -2.136914    2.314091
Bq    1.513890   -2.170509    2.324027
Bq    1.549565   -2.204104    2.333962
Bq    1.585239   -2.237699    2.343898
Bq    1.620914   -2.271294    2.353833
Bq    1.656589   -2.304889    2.363768
Bq    1.692263   -2.338483    2.373704
Bq    1.727938   -2.372078    2.383639
Bq    1.763612   -2.405673    2.393574
Bq    1.799287   -2.439268    2.403510
Bq    1.834962   -2.472863    2.413445
Bq    1.870636   -2.506458    2.423380
Bq    1.906311   -2.540052    2.433316
Bq    1.941985   -2.573647    2.443251
Bq    1.977660   -2.607242    2.453186
Bq    2.013335   -2.640837    2.463122
Bq    2.049009   -2.674432    2.473057
Bq    2.084684   -2.708026    2.482993
Bq    2.120358   -2.741621    2.492928
Bq    2.156033   -2.775216    2.502863
Bq    2.191708   -2.808811    2.512799
Bq    2.227382   -2.842406    2.522734
Bq    2.263057   -2.876001    2.532669
Bq    2.298731   -2.909595    2.542605
Bq    2.334406   -2.943190    2.552540
Bq    2.370081   -2.976785    2.562475
Bq    2.405755   -3.010380    2.572411
Bq    2.441430   -3.043975    2.582346
Bq    2.477104   -3.077569    2.592282
Bq    2.512779   -3.111164    2.602217
Bq    2.548453   -3.144759    2.612152
Bq    2.584128   -3.178354    2.622088
Bq    2.619803   -3.211949    2.632023
Bq    2.655477   -3.245544    2.641958
Bq    2.691152   -3.279138    2.651894
Bq    2.726826   -3.312733    2.661829
Bq    2.762501   -3.346328    2.671764
Bq    2.798176   -3.379923    2.681700
Bq    2.833850   -3.413518    2.691635
Bq    2.869525   -3.447113    2.701570
Bq    2.905199   -3.480707    2.711506
Bq    2.940874   -3.514302    2.721441
Bq    2.976549   -3.547897    2.731377
Bq    3.012223   -3.581492    2.741312
Bq    3.047898   -3.615087    2.751247
Bq   -0.453003   -0.265735    1.736093
Bq   -0.417329   -0.299330    1.746028
Bq   -0.381654   -0.332925    1.755964
Bq   -0.345979   -0.366520    1.765899
Bq   -0.310305   -0.400115    1.775835
Bq   -0.274630   -0.433709    1.785770
Bq   -0.238956   -0.467304    1.795705
Bq   -0.203281   -0.500899    1.805641
Bq   -0.167606   -0.534494    1.815576
Bq   -0.131932   -0.568089    1.825511
Bq   -0.096257   -0.601683    1.835447
Bq   -0.060583   -0.635278    1.845382
Bq   -0.024908   -0.668873    1.855317
Bq    0.010767   -0.702468    1.865253
Bq    0.046441   -0.736063    1.875188
Bq    0.082116   -0.769658    1.885123
Bq    0.117790   -0.803252    1.895059
Bq    0.153465   -0.836847    1.904994
Bq    0.189140   -0.870442    1.914930
Bq    0.224814   -0.904037    1.924865
Bq    0.260489   -0.937632    1.934800
Bq    0.296163   -0.971227    1.944736
Bq    0.331838   -1.004821    1.954671
Bq    0.367513   -1.038416    1.964606
Bq    0.403187   -1.072011    1.974542
Bq    0.438862   -1.105606    1.984477
Bq    0.474536   -1.139201    1.994412
Bq    0.510211   -1.172795    2.004348
Bq    0.545885   -1.206390    2.014283
Bq    0.581560   -1.239985    2.024219
Bq    0.617235   -1.273580    2.034154
Bq    0.652909   -1.307175    2.044089
Bq    0.688584   -1.340770    2.054025
Bq    0.724258   -1.374364    2.063960
Bq    0.759933   -1.407959    2.073895
Bq    0.795608   -1.441554    2.083831
Bq    0.831282   -1.475149    2.093766
Bq    0.866957   -1.508744    2.103701
Bq    0.902631   -1.542338    2.113637
Bq    0.938306   -1.575933    2.123572
Bq    0.973981   -1.609528    2.133507
Bq    1.009655   -1.643123    2.143443
Bq    1.045330   -1.676718    2.153378
Bq    1.081004   -1.710313    2.163314
Bq    1.116679   -1.743907    2.173249
Bq    1.152354   -1.777502    2.183184
Bq    1.188028   -1.811097    2.193120
Bq    1.223703   -1.844692    2.203055
Bq    1.259377   -1.878287    2.212990
Bq    1.295052   -1.911882    2.222926
Bq    1.330727   -1.945476    2.232861
Bq    1.366401   -1.979071    2.242796
Bq    1.402076   -2.012666    2.252732
Bq    1.437750   -2.046261    2.262667
Bq    1.473425   -2.079856    2.272603
Bq    1.509099   -2.113450    2.282538
Bq    1.544774   -2.147045    2.292473
Bq    1.580449   -2.180640    2.302409
Bq    1.616123   -2.214235    2.312344
Bq    1.651798   -2.247830    2.322279
Bq    1.687472   -2.281425    2.332215
Bq    1.723147   -2.315019    2.342150
Bq    1.758822   -2.348614    2.352085
Bq    1.794496   -2.382209    2.362021
Bq    1.830171   -2.415804    2.371956
Bq    1.865845   -2.449399    2.381891
Bq    1.901520   -2.482993    2.391827
Bq    1.937195   -2.516588    2.401762
Bq    1.972869   -2.550183    2.411698
Bq    2.008544   -2.583778    2.421633
Bq    2.044218   -2.617373    2.431568
Bq    2.079893   -2.650968    2.441504
Bq    2.115568   -2.684562    2.451439
Bq    2.151242   -2.718157    2.461374
Bq    2.186917   -2.751752    2.471310
Bq    2.222591   -2.785347    2.481245
Bq    2.258266   -2.818942    2.491180
Bq    2.293941   -2.852536    2.501116
Bq    2.329615   -2.886131    2.511051
Bq    2.365290   -2.919726    2.520986
Bq    2.400964   -2.953321    2.530922
Bq    2.436639   -2.986916    2.540857
Bq    2.472314   -3.020511    2.550793
Bq    2.507988   -3.054105    2.560728
Bq    2.543663   -3.087700    2.570663
Bq    2.579337   -3.121295    2.580599
Bq    2.615012   -3.154890    2.590534
Bq    2.650686   -3.188485    2.600469
Bq    2.686361   -3.222080    2.610405
Bq    2.722036   -3.255674    2.620340
Bq    2.757710   -3.289269    2.630275
Bq    2.793385   -3.322864    2.640211
Bq    2.829059   -3.356459    2.650146
Bq    2.864734   -3.390054    2.660082
Bq    2.900409   -3.423648    2.670017
Bq    2.936083   -3.457243    2.679952
Bq    2.971758   -3.490838    2.689888
Bq    3.007432   -3.524433    2.699823
Bq    3.043107   -3.558028    2.709758
Bq    3.078782   -3.591623    2.719694
Bq   -0.422119   -0.242271    1.704540
Bq   -0.386445   -0.275866    1.714475
Bq   -0.350770   -0.309461    1.724410
Bq   -0.315096   -0.343056    1.734346
Bq   -0.279421   -0.376650    1.744281
Bq   -0.243746   -0.410245    1.754216
Bq   -0.208072   -0.443840    1.764152
Bq   -0.172397   -0.477435    1.774087
Bq   -0.136723   -0.511030    1.784022
Bq   -0.101048   -0.544625    1.793958
Bq   -0.065373   -0.578219    1.803893
Bq   -0.029699   -0.611814    1.813828
Bq    0.005976   -0.645409    1.823764
Bq    0.041650   -0.679004    1.833699
Bq    0.077325   -0.712599    1.843635
Bq    0.113000   -0.746194    1.853570
Bq    0.148674   -0.779788    1.863505
Bq    0.184349   -0.813383    1.873441
Bq    0.220023   -0.846978    1.883376
Bq    0.255698   -0.880573    1.893311
Bq    0.291373   -0.914168    1.903247
Bq    0.327047   -0.947762    1.913182
Bq    0.362722   -0.981357    1.923117
Bq    0.398396   -1.014952    1.933053
Bq    0.434071   -1.048547    1.942988
Bq    0.469745   -1.082142    1.952923
Bq    0.505420   -1.115737    1.962859
Bq    0.541095   -1.149331    1.972794
Bq    0.576769   -1.182926    1.982730
Bq    0.612444   -1.216521    1.992665
Bq    0.648118   -1.250116    2.002600
Bq    0.683793   -1.283711    2.012536
Bq    0.719468   -1.317305    2.022471
Bq    0.755142   -1.350900    2.032406
Bq    0.790817   -1.384495    2.042342
Bq    0.826491   -1.418090    2.052277
Bq    0.862166   -1.451685    2.062212
Bq    0.897841   -1.485280    2.072148
Bq    0.933515   -1.518874    2.082083
Bq    0.969190   -1.552469    2.092019
Bq    1.004864   -1.586064    2.101954
Bq    1.040539   -1.619659    2.111889
Bq    1.076214   -1.653254    2.121825
Bq    1.111888   -1.686849    2.131760
Bq    1.147563   -1.720443    2.141695
Bq    1.183237   -1.754038    2.151631
Bq    1.218912   -1.787633    2.161566
Bq    1.254587   -1.821228    2.171501
Bq    1.290261   -1.854823    2.181437
Bq    1.325936   -1.888417    2.191372
Bq    1.361610   -1.922012    2.201307
Bq    1.397285   -1.955607    2.211243
Bq    1.432960   -1.989202    2.221178
Bq    1.468634   -2.022797    2.231114
Bq    1.504309   -2.056392    2.241049
Bq    1.539983   -2.089986    2.250984
Bq    1.575658   -2.123581    2.260920
Bq    1.611332   -2.157176    2.270855
Bq    1.647007   -2.190771    2.280790
Bq    1.682682   -2.224366    2.290726
Bq    1.718356   -2.257960    2.300661
Bq    1.754031   -2.291555    2.310596
Bq    1.789705   -2.325150    2.320532
Bq    1.825380   -2.358745    2.330467
Bq    1.861055   -2.392340    2.340403
Bq    1.896729   -2.425935    2.350338
Bq    1.932404   -2.459529    2.360273
Bq    1.968078   -2.493124    2.370209
Bq    2.003753   -2.526719    2.380144
Bq    2.039428   -2.560314    2.390079
Bq    2.075102   -2.593909    2.400015
Bq    2.110777   -2.627504    2.409950
Bq    2.146451   -2.661098    2.419885
Bq    2.182126   -2.694693    2.429821
Bq    2.217801   -2.728288    2.439756
Bq    2.253475   -2.761883    2.449691
Bq    2.289150   -2.795478    2.459627
Bq    2.324824   -2.829072    2.469562
Bq    2.360499   -2.862667    2.479498
Bq    2.396174   -2.896262    2.489433
Bq    2.431848   -2.929857    2.499368
Bq    2.467523   -2.963452    2.509304
Bq    2.503197   -2.997047    2.519239
Bq    2.538872   -3.030641    2.529174
Bq    2.574547   -3.064236    2.539110
Bq    2.610221   -3.097831    2.549045
Bq    2.645896   -3.131426    2.558980
Bq    2.681570   -3.165021    2.568916
Bq    2.717245   -3.198615    2.578851
Bq    2.752919   -3.232210    2.588787
Bq    2.788594   -3.265805    2.598722
Bq    2.824269   -3.299400    2.608657
Bq    2.859943   -3.332995    2.618593
Bq    2.895618   -3.366590    2.628528
Bq    2.931292   -3.400184    2.638463
Bq    2.966967   -3.433779    2.648399
Bq    3.002642   -3.467374    2.658334
Bq    3.038316   -3.500969    2.668269
Bq    3.073991   -3.534564    2.678205
Bq    3.109665   -3.568159    2.688140
Bq   -0.391236   -0.218807    1.672986
Bq   -0.355561   -0.252402    1.682921
Bq   -0.319886   -0.285997    1.692857
Bq   -0.284212   -0.319592    1.702792
Bq   -0.248537   -0.353186    1.712727
Bq   -0.212863   -0.386781    1.722663
Bq   -0.177188   -0.420376    1.732598
Bq   -0.141513   -0.453971    1.742533
Bq   -0.105839   -0.487566    1.752469
Bq   -0.070164   -0.521161    1.762404
Bq   -0.034490   -0.554755    1.772340
Bq    0.001185   -0.588350    1.782275
Bq    0.036860   -0.621945    1.792210
Bq    0.072534   -0.655540    1.802146
Bq    0.108209   -0.689135    1.812081
Bq    0.143883   -0.722729    1.822016
Bq    0.179558   -0.756324    1.831952
Bq    0.215233   -0.789919    1.841887
Bq    0.250907   -0.823514    1.851822
Bq    0.286582   -0.857109    1.861758
Bq    0.322256   -0.890704    1.871693
Bq    0.357931   -0.924298    1.881628
Bq    0.393606   -0.957893    1.891564
Bq    0.429280   -0.991488    1.901499
Bq    0.464955   -1.025083    1.911435
Bq    0.500629   -1.058678    1.921370
Bq    0.536304   -1.092273    1.931305
Bq    0.571978   -1.125867    1.941241
Bq    0.607653   -1.159462    1.951176
Bq    0.643328   -1.193057    1.961111
Bq    0.679002   -1.226652    1.971047
Bq    0.714677   -1.260247    1.980982
Bq    0.750351   -1.293841    1.990917
Bq    0.786026   -1.327436    2.000853
Bq    0.821701   -1.361031    2.010788
Bq    0.857375   -1.394626    2.020724
Bq    0.893050   -1.428221    2.030659
Bq    0.928724   -1.461816    2.040594
Bq    0.964399   -1.495410    2.050530
Bq    1.000074   -1.529005    2.060465
Bq    1.035748   -1.562600    2.070400
Bq    1.071423   -1.596195    2.080336
Bq    1.107097   -1.629790    2.090271
Bq    1.142772   -1.663384    2.100206
Bq    1.178447   -1.696979    2.110142
Bq    1.214121   -1.730574    2.120077
Bq    1.249796   -1.764169    2.130012
Bq    1.285470   -1.797764    2.139948
Bq    1.321145   -1.831359    2.149883
Bq    1.356820   -1.864953    2.159819
Bq    1.392494   -1.898548    2.169754
Bq    1.428169   -1.932143    2.179689
Bq    1.463843   -1.965738    2.189625
Bq    1.499518   -1.999333    2.199560
Bq    1.535193   -2.032927    2.209495
Bq    1.570867   -2.066522    2.219431
Bq    1.606542   -2.100117    2.229366
Bq    1.642216   -2.133712    2.239301
Bq    1.677891   -2.167307    2.249237
Bq    1.713565   -2.200902    2.259172
Bq    1.749240   -2.234496    2.269107
Bq    1.784915   -2.268091    2.279043
Bq    1.820589   -2.301686    2.288978
Bq    1.856264   -2.335281    2.298914
Bq    1.891938   -2.368876    2.308849
Bq    1.927613   -2.402471    2.318784
Bq    1.963288   -2.436065    2.328720
Bq    1.998962   -2.469660    2.338655
Bq    2.034637   -2.503255    2.348590
Bq    2.070311   -2.536850    2.358526
Bq    2.105986   -2.570445    2.368461
Bq    2.141661   -2.604039    2.378396
Bq    2.177335   -2.637634    2.388332
Bq    2.213010   -2.671229    2.398267
Bq    2.248684   -2.704824    2.408203
Bq    2.284359   -2.738419    2.418138
Bq    2.320034   -2.772014    2.428073
Bq    2.355708   -2.805608    2.438009
Bq    2.391383   -2.839203    2.447944
Bq    2.427057   -2.872798    2.457879
Bq    2.462732   -2.906393    2.467815
Bq    2.498407   -2.939988    2.477750
Bq    2.534081   -2.973582    2.487685
Bq    2.569756   -3.007177    2.497621
Bq    2.605430   -3.040772    2.507556
Bq    2.641105   -3.074367    2.517491
Bq    2.676780   -3.107962    2.527427
Bq    2.712454   -3.141557    2.537362
Bq    2.748129   -3.175151    2.547298
Bq    2.783803   -3.208746    2.557233
Bq    2.819478   -3.242341    2.567168
Bq    2.855152   -3.275936    2.577104
Bq    2.890827   -3.309531    2.587039
Bq    2.926502   -3.343126    2.596974
Bq    2.962176   -3.376720    2.606910
Bq    2.997851   -3.410315    2.616845
Bq    3.033525   -3.443910    2.626780
Bq    3.069200   -3.477505    2.636716
Bq    3.104875   -3.511100    2.646651
Bq    3.140549   -3.544694    2.656587
Bq   -0.360352   -0.195343    1.641432
Bq   -0.324677   -0.228938    1.651368
Bq   -0.289003   -0.262533    1.661303
Bq   -0.253328   -0.296128    1.671238
Bq   -0.217653   -0.329722    1.681174
Bq   -0.181979   -0.363317    1.691109
Bq   -0.146304   -0.396912    1.701044
Bq   -0.110630   -0.430507    1.710980
Bq   -0.074955   -0.464102    1.720915
Bq   -0.039280   -0.497696    1.730851
Bq   -0.003606   -0.531291    1.740786
Bq    0.032069   -0.564886    1.750721
Bq    0.067743   -0.598481    1.760657
Bq    0.103418   -0.632076    1.770592
Bq    0.139093   -0.665671    1.780527
Bq    0.174767   -0.699265    1.790463
Bq    0.210442   -0.732860    1.800398
Bq    0.246116   -0.766455    1.810333
Bq    0.281791   -0.800050    1.820269
Bq    0.317466   -0.833645    1.830204
Bq    0.353140   -0.867240    1.840140
Bq    0.388815   -0.900834    1.850075
Bq    0.424489   -0.934429    1.860010
Bq    0.460164   -0.968024    1.869946
Bq    0.495839   -1.001619    1.879881
Bq    0.531513   -1.035214    1.889816
Bq    0.567188   -1.068808    1.899752
Bq    0.602862   -1.102403    1.909687
Bq    0.638537   -1.135998    1.919622
Bq    0.674211   -1.169593    1.929558
Bq    0.709886   -1.203188    1.939493
Bq    0.745561   -1.236783    1.949428
Bq    0.781235   -1.270377    1.959364
Bq    0.816910   -1.303972    1.969299
Bq    0.852584   -1.337567    1.979235
Bq    0.888259   -1.371162    1.989170
Bq    0.923934   -1.404757    1.999105
Bq    0.959608   -1.438351    2.009041
Bq    0.995283   -1.471946    2.018976
Bq    1.030957   -1.505541    2.028911
Bq    1.066632   -1.539136    2.038847
Bq    1.102307   -1.572731    2.048782
Bq    1.137981   -1.606326    2.058717
Bq    1.173656   -1.639920    2.068653
Bq    1.209330   -1.673515    2.078588
Bq    1.245005   -1.707110    2.088524
Bq    1.280680   -1.740705    2.098459
Bq    1.316354   -1.774300    2.108394
Bq    1.352029   -1.807895    2.118330
Bq    1.387703   -1.841489    2.128265
Bq    1.423378   -1.875084    2.138200
Bq    1.459053   -1.908679    2.148136
Bq    1.494727   -1.942274    2.158071
Bq    1.530402   -1.975869    2.168006
Bq    1.566076   -2.009463    2.177942
Bq    1.601751   -2.043058    2.187877
Bq    1.637425   -2.076653    2.197812
Bq    1.673100   -2.110248    2.207748
Bq    1.708775   -2.143843    2.217683
Bq    1.744449   -2.177438    2.227619
Bq    1.780124   -2.211032    2.237554
Bq    1.815798   -2.244627    2.247489
Bq    1.851473   -2.278222    2.257425
Bq    1.887148   -2.311817    2.267360
Bq    1.922822   -2.345412    2.277295
Bq    1.958497   -2.379006    2.287231
Bq    1.994171   -2.412601    2.297166
Bq    2.029846   -2.446196    2.307101
Bq    2.065521   -2.479791    2.317037
Bq    2.101195   -2.513386    2.326972
Bq    2.136870   -2.546981    2.336908
Bq    2.172544   -2.580575    2.346843
Bq    2.208219   -2.614170    2.356778
Bq    2.243894   -2.647765    2.366714
Bq    2.279568   -2.681360    2.376649
Bq    2.315243   -2.714955    2.386584
Bq    2.350917   -2.748549    2.396520
Bq    2.386592   -2.782144    2.406455
Bq    2.422267   -2.815739    2.416390
Bq    2.457941   -2.849334    2.426326
Bq    2.493616   -2.882929    2.436261
Bq    2.529290   -2.916524    2.446196
Bq    2.564965   -2.950118    2.456132
Bq    2.600640   -2.983713    2.466067
Bq    2.636314   -3.017308    2.476003
Bq    2.671989   -3.050903    2.485938
Bq    2.707663   -3.084498    2.495873
Bq    2.743338   -3.118093    2.505809
Bq    2.779012   -3.151687    2.515744
Bq    2.814687   -3.185282    2.525679
Bq    2.850362   -3.218877    2.535615
Bq    2.886036   -3.252472    2.545550
Bq    2.921711   -3.286067    2.555485
Bq    2.957385   -3.319661    2.565421
Bq    2.993060   -3.353256    2.575356
Bq    3.028735   -3.386851    2.585291
Bq    3.064409   -3.420446    2.595227
Bq    3.100084   -3.454041    2.605162
Bq    3.135758   -3.487636    2.615098
Bq    3.171433   -3.521230    2.625033
Bq   -0.329468   -0.171879    1.609879
Bq   -0.293793   -0.205474    1.619814
Bq   -0.258119   -0.239069    1.629749
Bq   -0.222444   -0.272663    1.639685
Bq   -0.186770   -0.306258    1.649620
Bq   -0.151095   -0.339853    1.659556
Bq   -0.115420   -0.373448    1.669491
Bq   -0.079746   -0.407043    1.679426
Bq   -0.044071   -0.440638    1.689362
Bq   -0.008397   -0.474232    1.699297
Bq    0.027278   -0.507827    1.709232
Bq    0.062953   -0.541422    1.719168
Bq    0.098627   -0.575017    1.729103
Bq    0.134302   -0.608612    1.739038