#p b3lyp/6-31+G* nmr=csgt iop(10/93=2)

template file

  1  1
[geometry]

AICD.txt

20,23,24

