#p b3lyp/6-31+G* NMR

template file

  0  1
[geometry]

