%chk=C:\ethane_eclipse.chk
# B3LYP/def2TZVP ExtraLinks=L608

Geometry was opted via B3LYP/def-TZVP

0 1
 C                  0.00000000    0.00000000    0.77105000
 H                  0.00000000    1.01311700    1.17654000
 H                  0.87738500   -0.50655900    1.17654000
 H                 -0.87738500   -0.50655900    1.17654000
 C                  0.00000000    0.00000000   -0.77105000
 H                 -0.87738500   -0.50655900   -1.17654000
 H                  0.00000000    1.01311700   -1.17654000
 H                  0.87738500   -0.50655900   -1.17654000

-5

