%chk=C:\ethane_stagger.chk
# B3LYP/def2TZVP ExtraLinks=L608

Geometry was opted via B3LYP/def-TZVP

0 1
 C                  0.00000000    0.00000000    0.76406800
 H                 -0.50863400    0.88112800    1.16168200
 H                  1.01739600   -0.00007400    1.16168200
 H                 -0.50876200   -0.88105400    1.16168200
 C                  0.00000000    0.00000000   -0.76406800
 H                  0.50876200   -0.88105400   -1.16168200
 H                 -1.01739600   -0.00007400   -1.16168200
 H                  0.50863400    0.88112800   -1.16168200

-5

