%chk=C:\Users\Sobereva\Desktop\C18.chk
#p opt freq wb97xd def2tzvp

wb97xd/def-TZVP opted

0 1
 C                  0.61036128    3.64174758    0.00000000
 C                 -0.61036128    3.64174758   -0.00000000
 C                 -1.87330643    3.18207313    0.00000000
 C                 -2.80843416    2.39740780    0.00000000
 C                 -3.48043324    1.23347126    0.00000000
 C                 -3.69240948    0.03129422   -0.00000000
 C                 -3.45902665   -1.29228558    0.00000000
 C                 -2.84866537   -2.34946233    0.00000000
 C                 -1.81910306   -3.21336769    0.00000000
 C                 -0.67199908   -3.63087939   -0.00000000
 C                  0.67199908   -3.63087939    0.00000000
 C                  1.81910306   -3.21336769    0.00000000
 C                  2.84866537   -2.34946233    0.00000000
 C                  3.45902665   -1.29228558   -0.00000000
 C                  3.69240948    0.03129422    0.00000000
 C                  3.48043324    1.23347126    0.00000000
 C                  2.80843416    2.39740780    0.00000000
 C                  1.87330643    3.18207313   -0.00000000
 X                  0.00000000    3.64174758   -0.00000000
 X                  1.24183385    3.41191036   -0.00000000
 X                  2.34087029    2.78974047   -0.00000000
 X                  3.14443370    1.81543953    0.00000000
 X                  3.58642136    0.63238274    0.00000000
 X                  3.57571807   -0.63049568   -0.00000000
 X                  3.15384601   -1.82087396   -0.00000000
 X                  2.33388421   -2.78141501    0.00000000
 X                  1.24555107   -3.42212354    0.00000000
 X                  0.00000000   -3.63087939   -0.00000000
 X                 -1.24555107   -3.42212354   -0.00000000
 X                 -2.33388421   -2.78141501    0.00000000
 X                 -3.15384601   -1.82087396    0.00000000
 X                 -3.57571807   -0.63049568   -0.00000000
 X                 -3.58642136    0.63238274   -0.00000000
 X                 -3.14443370    1.81543953    0.00000000
 X                 -2.34087029    2.78974047    0.00000000
 X                 -1.24183385    3.41191036   -0.00000000

