%mem=20GB
%nprocshared=8
%chk=C:\3.chk
# B3LYP/6-31G* nosymm

Title Card Required

0 1
 C                  1.77973650   -0.31771004    0.00000000
 C                  1.16501322   -1.38244200    0.00000000
 H                  2.66038682    0.28422725    0.00000000
 H                  1.08404539   -2.44607619    0.00000000

