&GLOBAL
  PROJECT diamond
  RUN_TYPE ENERGY
  PRINT_LEVEL LOW
&END GLOBAL
&FORCE_EVAL
  METHOD Quickstep
  &SUBSYS
    &KIND C
      ELEMENT	C
      BASIS_SET DZVP-MOLOPT-GTH
      POTENTIAL GTH-PBE
    &END KIND
    &CELL
      A    7.13358000    0.00000000    0.00000000
      B    0.00000000    7.13358000    0.00000000
      C    0.00000000    0.00000000    7.13358000
    &END CELL
    &COORD
 C                  0.00000000    0.00000000    0.00000000
 C                  0.89169750    0.89169750    0.89169750
 C                  0.00000000    1.78339500    1.78339500
 C                  2.67509250    0.89169750    2.67509250
 C                  1.78339500    0.00000000    1.78339500
 C                  0.89169750    2.67509250    2.67509250
 C                  1.78339500    1.78339500    0.00000000
 C                  2.67509250    2.67509250    0.89169750
 C                  3.56679000    0.00000000    0.00000000
 C                  4.45848750    0.89169750    0.89169750
 C                  3.56679000    1.78339500    1.78339500
 C                  6.24188250    0.89169750    2.67509250
 C                  5.35018500    0.00000000    1.78339500
 C                  4.45848750    2.67509250    2.67509250
 C                  5.35018500    1.78339500    0.00000000
 C                  6.24188250    2.67509250    0.89169750
 C                  0.00000000    3.56679000    0.00000000
 C                  0.89169750    4.45848750    0.89169750
 C                  0.00000000    5.35018500    1.78339500
 C                  2.67509250    4.45848750    2.67509250
 C                  1.78339500    3.56679000    1.78339500
 C                  0.89169750    6.24188250    2.67509250
 C                  1.78339500    5.35018500    0.00000000
 C                  2.67509250    6.24188250    0.89169750
 C                  3.56679000    3.56679000    0.00000000
 C                  4.45848750    4.45848750    0.89169750
 C                  3.56679000    5.35018500    1.78339500
 C                  6.24188250    4.45848750    2.67509250
 C                  5.35018500    3.56679000    1.78339500
 C                  4.45848750    6.24188250    2.67509250
 C                  5.35018500    5.35018500    0.00000000
 C                  6.24188250    6.24188250    0.89169750
 C                  0.00000000    0.00000000    3.56679000
 C                  0.89169750    0.89169750    4.45848750
 C                  0.00000000    1.78339500    5.35018500
 C                  2.67509250    0.89169750    6.24188250
 C                  1.78339500    0.00000000    5.35018500
 C                  0.89169750    2.67509250    6.24188250
 C                  1.78339500    1.78339500    3.56679000
 C                  2.67509250    2.67509250    4.45848750
 C                  3.56679000    0.00000000    3.56679000
 C                  4.45848750    0.89169750    4.45848750
 C                  3.56679000    1.78339500    5.35018500
 C                  6.24188250    0.89169750    6.24188250
 C                  5.35018500    0.00000000    5.35018500
 C                  4.45848750    2.67509250    6.24188250
 C                  5.35018500    1.78339500    3.56679000
 C                  6.24188250    2.67509250    4.45848750
 C                  0.00000000    3.56679000    3.56679000
 C                  0.89169750    4.45848750    4.45848750
 C                  0.00000000    5.35018500    5.35018500
 C                  2.67509250    4.45848750    6.24188250
 C                  1.78339500    3.56679000    5.35018500
 C                  0.89169750    6.24188250    6.24188250
 C                  1.78339500    5.35018500    3.56679000
 C                  2.67509250    6.24188250    4.45848750
 C                  3.56679000    3.56679000    3.56679000
 C                  4.45848750    4.45848750    4.45848750
 C                  3.56679000    5.35018500    5.35018500
 C                  6.24188250    4.45848750    6.24188250
 C                  5.35018500    3.56679000    5.35018500
 C                  4.45848750    6.24188250    6.24188250
 C                  5.35018500    5.35018500    3.56679000
 C                  6.24188250    6.24188250    4.45848750
    &END COORD
  &END SUBSYS
  &DFT
    BASIS_SET_FILE_NAME  BASIS_MOLOPT.dat
    POTENTIAL_FILE_NAME  GTH_POTENTIALS
    &MGRID
      CUTOFF 350
      REL_CUTOFF 50
    &END MGRID
    &XC
      &XC_FUNCTIONAL PBE
      &END XC_FUNCTIONAL
    &END XC
    &SCF
      MAX_SCF 100
      &DIAGONALIZATION
        ALGORITHM STANDARD
      &END DIAGONALIZATION
    &END SCF
    &PRINT
      &MO_MOLDEN
        NDIGITS 9
      &END MO_MOLDEN
    &END PRINT
  &END DFT
&END FORCE_EVAL
