# b3lyp/6-31g(d) out=wfn

Geometry was optimized at b3lyp/6-31g(d) level for neutral state

+1 2
 C                  0.02082100   -1.85733400    0.00000000
 C                  1.22048400   -1.14011500    0.00000000
 C                  1.21812200    0.25309000    0.00000000
 C                  0.00000000    0.94117500    0.00000000
 C                 -1.20625800    0.23245100    0.00000000
 C                 -1.18949000   -1.16312800    0.00000000
 H                  0.03003900   -2.94340800    0.00000000
 H                  2.16996900   -1.66955400    0.00000000
 H                  2.14242000    0.82231900    0.00000000
 H                 -2.15282600    0.77102800    0.00000000
 H                 -2.13099000   -1.70650600    0.00000000
 O                  0.05161500    2.30900800    0.00000000
 H                 -0.85360600    2.65722900    0.00000000

C:\phenol_N-1.wfn

