# B972/def2TZVP NMR scrf

Title Card Required

0 1
 N                 -0.07297400    1.70311500    0.12095400
 H                 -1.05262600    1.68518300    0.53656400
 C                 -0.06918800    0.35494000   -0.56035400
 H                 -0.03645400    0.53700900   -1.63457700
 C                  1.11865400   -0.52239900   -0.15169400
 C                 -1.45686000   -0.27760300   -0.20416600
 H                  0.93341300   -1.46434600   -0.67400200
 C                  2.45143700    0.05467600   -0.63989200
 C                  1.14104200   -0.81890400    1.35279300
 O                 -2.19763300    0.46298400    0.50487400
 H                  2.68573400    1.00668600   -0.15175600
 H                  3.26993400   -0.63336700   -0.41616600
 H                  2.43553300    0.22636300   -1.71913300
 H                  0.20336800   -1.26882000    1.68494900
 H                  1.95070900   -1.51415700    1.58358600
 H                  1.31784000    0.08022800    1.95326800
 H                  0.04427800    2.48627200   -0.51784700
 H                  0.61805900    1.78657800    0.86486400
 O                 -1.67355200   -1.41219600   -0.64694300

