# B972/def2TZVP NMR scrf

Title Card Required

0 1
 Si                 0.00000000    0.00000000    0.00000000
 C                  1.08868900    1.08868900    1.08868900
 H                  1.73306400    1.73306400    0.48262600
 H                  0.48262600    1.73306400    1.73306400
 H                  1.73306400    0.48262600    1.73306400
 C                 -1.08868900   -1.08868900    1.08868900
 H                 -1.73306400   -0.48262600    1.73306400
 H                 -1.73306400   -1.73306400    0.48262600
 H                 -0.48262600   -1.73306400    1.73306400
 C                 -1.08868900    1.08868900   -1.08868900
 H                 -0.48262600    1.73306400   -1.73306400
 H                 -1.73306400    0.48262600   -1.73306400
 H                 -1.73306400    1.73306400   -0.48262600
 C                  1.08868900   -1.08868900   -1.08868900
 H                  0.48262600   -1.73306400   -1.73306400
 H                  1.73306400   -0.48262600   -1.73306400
 H                  1.73306400   -1.73306400   -0.48262600

