%chk=NH2_C8_NO2.chk
# CAM-B3LYP/6-31G* IOp(9/40=4) TD(nstates=10)

b3lyp/6-31g(d) opted

0 1
 N                  6.50405100    0.05786700   -0.05706200
 C                  5.20452900    0.48623900    0.00416100
 C                  4.09715800   -0.30455300    0.00319600
 C                  2.77195500    0.23102900   -0.00270200
 C                  1.61822800   -0.49945100   -0.00086300
 C                  0.31743700    0.08968700   -0.00185500
 C                 -0.86261700   -0.59828800   -0.00054400
 C                 -2.13452700    0.05349700   -0.00098700
 C                 -3.32495600   -0.58720700    0.00096400
 N                 -4.56278300    0.14120400    0.00105500
 O                 -5.59837700   -0.53855800    0.00299400
 O                 -4.54047600    1.37929700   -0.00061300
 H                  7.23169800    0.68744300    0.24825600
 H                  6.69515700   -0.91995900    0.11759700
 H                  5.09475000    1.56886700    0.00389400
 H                  4.21449600   -1.38818500    0.00352500
 H                  2.68547000    1.31932100   -0.00668300
 H                  1.67994100   -1.58772700    0.00093300
 H                  0.27257700    1.18014100   -0.00382700
 H                 -0.84345500   -1.68754000    0.00115300
 H                 -2.15989800    1.14106600   -0.00274500
 H                 -3.47203100   -1.65855400    0.00268200

