%chk=C:\N-1.chk
# b3lyp/6-31g(d)

Geometry was optimized for neutral state

1 2
 C                 -1.14250700   -0.51040300    0.00000000
 H                 -2.11285400   -0.00455000    0.00000000
 H                 -1.11055900   -1.16124300    0.88249800
 H                 -1.11055900   -1.16124300   -0.88249800
 C                  0.00000000    0.48026100    0.00000000
 H                 -0.27133900    1.53600300    0.00000000
 C                  1.29346400    0.15624800    0.00000000
 H                  1.62770900   -0.88013200    0.00000000
 H                  2.07186300    0.91452900    0.00000000

