# B3LYP/6-31G* opt

This task is used to optimize neutral state

0 1
 C                  0.17124740   -1.24070859    0.00000000
 H                 -0.57897663   -2.00363972    0.00000000
 H                  0.78097430   -1.34005615    0.87364932
 H                  0.78097430   -1.34005615   -0.87364932
 C                 -0.50408434    0.14331708    0.00000000
 H                 -1.57163617    0.21565717    0.00000000
 C                  0.24908229    1.26995237    0.00000000
 H                  1.31704507    1.20395631    0.00000000
 H                 -0.22584685    2.22877577    0.00000000

