# M062X/def2TZVP out=wfn nosymm

Optimized at M062X/6-311G**

0 1
 O                 -1.35042300    1.35042300    0.07057100
 H                 -1.59273400    1.81135500    0.87570900
 H                 -0.38550000    1.48912900   -0.02989800

C:\water2.wfn

