#p wb97xd/gen polar=gamma

wb97xd/def-TZVP opted

0 1
 C                  0.61036100    3.64174700    0.00000000
 C                 -0.61036100    3.64174700    0.00000000
 C                 -1.87330600    3.18207300    0.00000000
 C                 -2.80843400    2.39740800    0.00000000
 C                 -3.48043300    1.23347100    0.00000000
 C                 -3.69240900    0.03129400    0.00000000
 C                 -3.45902600   -1.29228500    0.00000000
 C                 -2.84866500   -2.34946200    0.00000000
 C                 -1.81910300   -3.21336700    0.00000000
 C                 -0.67199900   -3.63087900    0.00000000
 C                  0.67199900   -3.63087900    0.00000000
 C                  1.81910300   -3.21336700    0.00000000
 C                  2.84866500   -2.34946200    0.00000000
 C                  3.45902600   -1.29228500    0.00000000
 C                  3.69240900    0.03129400    0.00000000
 C                  3.48043300    1.23347100    0.00000000
 C                  2.80843400    2.39740800    0.00000000
 C                  1.87330600    3.18207300    0.00000000

0.0

@/sob/LPol-ds.gbs/N

