%chk=C:\CO.chk
# b3lyp/6-31g(d) nosymm

B3LYP/6-31G* opted

0 1
 C                  0.00000000    0.18395880   -0.00000000
 O                 -0.00181775    1.32430665   -0.00000000


