#P PBE1PBE/aug-cc-pVTZ polar=gamma

B3LYP/TZVP opted

0 1
 C                  0.00000000    0.00000000   -0.52710800
 H                  0.00000000    0.93885600   -1.11413900
 H                  0.00000000   -0.93885600   -1.11413900
 O                  0.00000000    0.00000000    0.67386600

0.0

