#P CAM-B3LYP/aug-cc-pVTZ polar=gamma CPHF=rdfreq

B3LYP/6-311++G** opted

0 1
 C                 -1.42185400    0.48434600    0.00000000
 H                 -1.99137900    1.41345100    0.00000000
 H                 -1.68745700   -0.09936700    0.88452400
 H                 -1.68745700   -0.09936700   -0.88452400
 N                  0.00000000    0.80427900    0.00000000
 C                  0.95655400   -0.15841500    0.00000000
 H                  0.29333200    1.76830000    0.00000000
 O                  0.73560300   -1.35373200    0.00000000
 H                  1.97993900    0.26130100    0.00000000

450nm 1030nm

