# B3LYP/6-311G** IOp(6/33=2,6/42=6) pop=MK

Title Card Required

0 1
 O                 -2.41214950    1.72713178    0.36106756
 O                 -3.20025297   -0.80684358    0.38138309
 N                  3.12623674   -0.73235791    1.03160980
 C                  2.19728637    0.45068410   -0.92084444
 C                  0.76233951    0.09044197   -0.62071554
 C                  3.05574504    0.56145993    0.34857959
 C                 -0.16560173    1.08606217   -0.28990614
 C                  0.33569687   -1.23537761   -0.60702650
 C                 -1.48028168    0.78263471    0.04157225
 C                 -0.98204728   -1.55194306   -0.27270350
 C                 -1.89840280   -0.55972746    0.05183883
 H                  2.23742207    1.40400674   -1.45740784
 H                  2.64174284   -0.31045952   -1.56707838
 H                  4.07174277    0.84863653    0.06025645
 H                  2.65449710    1.37572748    0.97498177
 H                  0.14300275    2.12873325   -0.29683406
 H                  1.03391427   -2.02610967   -0.85280844
 H                 -1.30585269   -2.58885601   -0.26864145
 H                  2.20484819   -0.98204558    1.37933389
 H                  3.73748162   -0.66971701    1.83906554
 H                 -1.99966906    2.59493687    0.30688699
 H                 -3.35197317   -1.75606182    0.33660449

