# B3LYP/6-311G** IOp(6/33=2,6/42=6) pop=MK

Title Card Required

0 1
 O                 -2.03475163    1.93403309   -0.25196756
 O                 -3.28162557   -0.28387475    0.51095363
 N                  2.85114033    1.14454460    0.89131491
 C                  2.24006662   -0.48558769   -0.86151874
 C                  0.76743405   -0.47033131   -0.53010288
 C                  3.12738240   -0.19338016    0.35878288
 C                  0.04391920    0.72868155   -0.56998828
 C                  0.10237001   -1.62541995   -0.12682116
 C                 -1.30065814    0.78405674   -0.22218160
 C                 -1.24693205   -1.58100149    0.22489325
 C                 -1.96008790   -0.38900807    0.18301569
 H                  2.45770122    0.26310693   -1.62817041
 H                  2.51498882   -1.46341847   -1.26840424
 H                  2.98918277   -1.00113958    1.09564345
 H                  4.17457911   -0.22118665    0.04224483
 H                  0.54876842    1.64188678   -0.87168660
 H                  0.63299894   -2.57008739   -0.08979442
 H                 -1.75814267   -2.48913735    0.53154614
 H                  3.51589181    1.37221690    1.62335737
 H                  1.93067814    1.15358179    1.32099578
 H                 -1.46873848    2.64877401   -0.56068873
 H                 -3.60583785   -1.15573355    0.75738904

