# B3LYP/6-311G** IOp(6/33=2,6/42=6) pop=MK

Title Card Required

0 1
 O                 -2.09827539    1.91092673   -0.21004203
 O                 -3.26711220   -0.35477933    0.52891341
 N                  2.92296329    0.99426830    1.14172334
 C                  2.24152198   -0.37647187   -0.90249532
 C                  0.77118432   -0.40384564   -0.57195260
 C                  3.12883444   -0.21947652    0.35557981
 C                  0.01271354    0.77325592   -0.57492567
 C                  0.14358895   -1.58515468   -0.18260075
 C                 -1.32951210    0.78375355   -0.20976983
 C                 -1.20042164   -1.58676560    0.18798660
 C                 -1.94841530   -0.41502065    0.18140702
 H                  2.45479810    0.44899129   -1.59080529
 H                  2.52311844   -1.30059873   -1.41863470
 H                  2.96038046   -1.07740933    1.01387700
 H                  4.18065571   -0.25684468    0.05465336
 H                  0.47613881    1.70705684   -0.88181328
 H                  0.70173553   -2.51441332   -0.16986263
 H                 -1.68048148   -2.51513887    0.48385045
 H                  1.95440865    1.05125157    1.44238309
 H                  3.09805873    1.81622168    0.57074407
 H                 -1.56127276    2.64926956   -0.51438905
 H                 -3.56214779   -1.23909031    0.76758704

