%chk=dopamine.chk
# b3lyp/6-311g(d,p) scrf=solvent=ethanol IOp(6/33=2,6/42=6) pop=MK

opted

0 1
 O                 -2.39514200    1.74053300    0.33547700
 O                 -3.20340100   -0.78686200    0.39346600
 N                  3.14276300   -0.60393500    1.21504300
 C                  2.20213100    0.41404200   -0.92659200
 C                  0.76474700    0.06655800   -0.63188600
 C                  3.04427400    0.58181100    0.35861500
 C                 -0.15370000    1.07566100   -0.31308400
 C                  0.32700100   -1.25644000   -0.59731000
 C                 -1.46953100    0.78386700    0.02538000
 C                 -0.99306500   -1.56153200   -0.25789700
 C                 -1.89832300   -0.55536000    0.05594500
 H                  2.25302800    1.34467200   -1.50161300
 H                  2.65369100   -0.37055400   -1.54227400
 H                  4.05737600    0.88666200    0.07958600
 H                  2.62176700    1.39668300    0.95514500
 H                  0.16088500    2.11528300   -0.33238400
 H                  1.01287300   -2.05863800   -0.84240800
 H                 -1.32639400   -2.59430500   -0.23876500
 H                  3.55112400   -1.36891800    0.68333400
 H                  2.20665100   -0.91541400    1.46218000
 H                 -1.97797300    2.60808900    0.28267600
 H                 -3.36523900   -1.73702400    0.37865500

