# B3LYP/6-311G** opt em=GD3BJ

test

0 1
 O                 -1.55100712   -0.11452001    0.00000000
 H                 -1.93425915    0.76250306    0.00000000
 H                 -0.59967705    0.04071200    0.00000000
 O                  1.35062510    0.11146901    0.00000000
 H                  1.68039813   -0.37374103   -0.75856106
 H                  1.68039813   -0.37374103    0.75856106

