%chk=water.chk
# B3LYP/6-311G** opt em=GD3BJ

test

0 1
 O                  0.00000000    0.00000000   -0.11781282
 H                  0.00000000    0.75195578    0.47642189
 H                  0.00000000   -0.75195578    0.47642189

