%mem=20GB
%nprocshared=8
%chk=C:\CH3_2.chk
# b3lyp/6-31g(d) nosymm

Title Card Required

0 2
 C                  0.00000000    0.00000000   -0.76531400
 H                  0.00000000   -1.02101000   -1.16448500
 H                 -0.88422100    0.51050500   -1.16448500
 H                  0.88422100    0.51050500   -1.16448500

