%chk=dopamine3.chk
# B3LYP/6-311G** em=GD3BJ opt freq

 Title Card Required

 0 1
O          -2.42709983      1.87477513     -0.04621936
O          -3.44582637     -0.50331709      0.38949028
N           2.69090501      1.24974865      1.32891321
C           2.07016831     -0.01521313     -0.70246150
C           0.60742637     -0.16584977     -0.42140650
C           2.88306377     -0.03057277      0.60863481
C          -0.21017318      0.97135577     -0.37049577
C           0.06333812     -1.42723681     -0.19766943
C          -1.56388785      0.82936447     -0.09685822
C          -1.29833890     -1.57592582      0.08011507
C          -2.11306052     -0.45253550      0.13069948
H           2.27985848      0.93017307     -1.24788086
H           2.42778083     -0.82338049     -1.37051866
H           2.60297623     -0.91619475      1.21781168
H           3.96760075     -0.12038620      0.37509346
H           0.21619290      1.95487575     -0.55215560
H           0.69797502     -2.30963944     -0.23915520
H          -1.71185145     -2.56576322      0.25257035
H           3.11786649      1.22925696      2.24016259
H           1.71176849      1.46690113      1.43560630
H          -1.95309958      2.73856366     -0.15082844
H          -3.74736205     -1.43825661      0.51411537

