%chk=dopamine1.chk
# B3LYP/6-311G** em=GD3BJ opt freq

 Title Card Required

 0 1
O          -2.30879057      1.90385754      0.11453699
O          -3.45498771     -0.44042144      0.36058377
N           2.77298136     -0.96385677      1.58479593
C           2.07614430     -0.16314919     -0.72001287
C           0.60872200     -0.26095753     -0.44759062
C           2.85354992      0.11796501      0.58936174
C          -0.14674641      0.91210073     -0.30579028
C          -0.00189894     -1.50397665     -0.31711614
C          -1.50451419      0.82180723     -0.03352035
C          -1.36961658     -1.60081147     -0.04073688
C          -2.12198445     -0.44346827      0.10098844
H           2.28524034      0.64141116     -1.45322648
H           2.45972299     -1.08721656     -1.19408824
H           3.92660602      0.29500082      0.35738284
H           2.47317915      1.05005975      1.06373336
H           0.33168161      1.88141358     -0.40819521
H           0.57999216     -2.41496583     -0.43538062
H          -1.83485698     -2.57804626      0.05741539
H           3.13359093     -1.83245407      1.22647431
H           1.82293232     -1.11454554      1.89013019
H          -1.79864963      2.74720160      0.01261976
H          -3.80143846     -1.36375426      0.45377191

